# vtk DataFile Version 2.0
data/timeSh_0001.vtk
ASCII
DATASET UNSTRUCTURED_GRID
POINTS 441 float
5.00000e-01 5.00000e-01 0.00000e+00
4.50000e-01 5.00000e-01 0.00000e+00
4.00000e-01 5.00000e-01 0.00000e+00
3.50000e-01 5.00000e-01 0.00000e+00
3.00000e-01 5.00000e-01 0.00000e+00
2.50000e-01 5.00000e-01 0.00000e+00
2.00000e-01 5.00000e-01 0.00000e+00
1.50000e-01 5.00000e-01 0.00000e+00
1.00000e-01 5.00000e-01 0.00000e+00
5.00000e-02 5.00000e-01 0.00000e+00
0.00000e+00 5.00000e-01 0.00000e+00
-5.00000e-02 5.00000e-01 0.00000e+00
-1.00000e-01 5.00000e-01 0.00000e+00
-1.50000e-01 5.00000e-01 0.00000e+00
-2.00000e-01 5.00000e-01 0.00000e+00
-2.50000e-01 5.00000e-01 0.00000e+00
-3.00000e-01 5.00000e-01 0.00000e+00
-3.50000e-01 5.00000e-01 0.00000e+00
-4.00000e-01 5.00000e-01 0.00000e+00
-4.50000e-01 5.00000e-01 0.00000e+00
-5.00000e-01 5.00000e-01 0.00000e+00
5.00000e-01 4.50000e-01 0.00000e+00
4.50000e-01 4.50000e-01 -8.80472e-05
4.00000e-01 4.50000e-01 -3.41827e-04
3.50000e-01 4.50000e-01 -6.99149e-04
3.00000e-01 4.50000e-01 -1.06255e-03
2.50000e-01 4.50000e-01 -1.40234e-03
2.00000e-01 4.50000e-01 -1.69190e-03
1.50000e-01 4.50000e-01 -1.93432e-03
1.00000e-01 4.50000e-01 -2.12217e-03
5.00000e-02 4.50000e-01 -2.23660e-03
-1.90579e-14 4.50000e-01 -2.27179e-03
-5.00000e-02 4.50000e-01 -2.23547e-03
-1.00000e-01 4.50000e-01 -2.12195e-03
-1.50000e-01 4.50000e-01 -1.93514e-03
-2.00000e-01 4.50000e-01 -1.68888e-03
-2.50000e-01 4.50000e-01 -1.38890e-03
-3.00000e-01 4.50000e-01 -1.05268e-03
-3.50000e-01 4.50000e-01 -6.95387e-04
-4.00000e-01 4.50000e-01 -3.44726e-04
-4.50000e-01 4.50000e-01 -9.18273e-05
-5.00000e-01 4.50000e-01 0.00000e+00
5.00000e-01 4.00000e-01 0.00000e+00
4.50000e-01 4.00000e-01 -3.41488e-04
4.00000e-01 4.00000e-01 -1.25324e-03
3.50000e-01 4.00000e-01 -2.46246e-03
3.00000e-01 4.00000e-01 -3.74101e-03
2.50000e-01 4.00000e-01 -4.93460e-03
2.00000e-01 4.00000e-01 -5.99204e-03
1.50000e-01 4.00000e-01 -6.86920e-03
1.00000e-01 4.00000e-01 -7.52238e-03
5.00000e-02 4.00000e-01 -7.92443e-03
1.84046e-14 4.00000e-01 -8.05826e-03
-5.00000e-02 4.00000e-01 -7.92261e-03
-1.00000e-01 4.00000e-01 -7.51495e-03
-1.50000e-01 4.00000e-01 -6.86440e-03
-2.00000e-01 4.00000e-01 -5.99234e-03
-2.50000e-01 4.00000e-01 -4.92991e-03
-3.00000e-01 4.00000e-01 -3.71808e-03
-3.50000e-01 4.00000e-01 -2.45658e-03
-4.00000e-01 4.00000e-01 -1.24924e-03
-4.50000e-01 4.00000e-01 -3.39037e-04
-5.00000e-01 4.00000e-01 0.00000e+00
5.00000e-01 3.50000e-01 0.00000e+00
4.50000e-01 3.50000e-01 -7.02341e-04
4.00000e-01 3.50000e-01 -2.46913e-03
3.50000e-01 3.50000e-01 -4.76185e-03
3.00000e-01 3.50000e-01 -7.24823e-03
2.50000e-01 3.50000e-01 -9.61970e-03
2.00000e-01 3.50000e-01 -1.17028e-02
1.50000e-01 3.50000e-01 -1.34194e-02
1.00000e-01 3.50000e-01 -1.46998e-02
5.00000e-02 3.50000e-01 -1.54780e-02
1.10661e-14 3.50000e-01 -1.57382e-02
-5.00000e-02 3.50000e-01 -1.54744e-02
-1.00000e-01 3.50000e-01 -1.46933e-02
-1.50000e-01 3.50000e-01 -1.34230e-02
-2.00000e-01 3.50000e-01 -1.17181e-02
-2.50000e-01 3.50000e-01 -9.62046e-03
-3.00000e-01 3.50000e-01 -7.25272e-03
-3.50000e-01 3.50000e-01 -4.75755e-03
-4.00000e-01 3.50000e-01 -2.45162e-03
-4.50000e-01 3.50000e-01 -6.92581e-04
-5.00000e-01 3.50000e-01 0.00000e+00
5.00000e-01 3.00000e-01 0.00000e+00
4.50000e-01 3.00000e-01 -1.06178e-03
4.00000e-01 3.00000e-01 -3.73762e-03
3.50000e-01 3.00000e-01 -7.25201e-03
3.00000e-01 3.00000e-01 -1.10612e-02
2.50000e-01 3.00000e-01 -1.47158e-02
2.00000e-01 3.00000e-01 -1.79470e-02
1.50000e-01 3.00000e-01 -2.05872e-02
1.00000e-01 3.00000e-01 -2.25523e-02
5.00000e-02 3.00000e-01 -2.37645e-02
-1.08941e-14 3.00000e-01 -2.41753e-02
-5.00000e-02 3.00000e-01 -2.37757e-02
-1.00000e-01 3.00000e-01 -2.25640e-02
-1.50000e-01 3.00000e-01 -2.06055e-02
-2.00000e-01 3.00000e-01 -1.79509e-02
-2.50000e-01 3.00000e-01 -1.47193e-02
-3.00000e-01 3.00000e-01 -1.10698e-02
-3.50000e-01 3.00000e-01 -7.26136e-03
-4.00000e-01 3.00000e-01 -3.73038e-03
-4.50000e-01 3.00000e-01 -1.05488e-03
-5.00000e-01 3.00000e-01 0.00000e+00
5.00000e-01 2.50000e-01 0.00000e+00
4.50000e-01 2.50000e-01 -1.40017e-03
4.00000e-01 2.50000e-01 -4.94384e-03
3.50000e-01 2.50000e-01 -9.62598e-03
3.00000e-01 2.50000e-01 -1.47129e-02
2.50000e-01 2.50000e-01 -1.96364e-02
2.00000e-01 2.50000e-01 -2.40011e-02
1.50000e-01 2.50000e-01 -2.75712e-02
1.00000e-01 2.50000e-01 -3.02323e-02
5.00000e-02 2.50000e-01 -3.18735e-02
-1.43453e-14 2.50000e-01 -3.24253e-02
-5.00000e-02 2.50000e-01 -3.18854e-02
-1.00000e-01 2.50000e-01 -3.02596e-02
-1.50000e-01 2.50000e-01 -2.75875e-02
-2.00000e-01 2.50000e-01 -2.39874e-02
-2.50000e-01 2.50000e-01 -1.96375e-02
-3.00000e-01 2.50000e-01 -1.47437e-02
-3.50000e-01 2.50000e-01 -9.65661e-03
-4.00000e-01 2.50000e-01 -4.95393e-03
-4.50000e-01 2.50000e-01 -1.39745e-03
-5.00000e-01 2.50000e-01 0.00000e+00
5.00000e-01 2.00000e-01 0.00000e+00
4.50000e-01 2.00000e-01 -1.70102e-03
4.00000e-01 2.00000e-01 -6.01202e-03
3.50000e-01 2.00000e-01 -1.17245e-02
3.00000e-01 2.00000e-01 -1.79538e-02
2.50000e-01 2.00000e-01 -2.39988e-02
2.00000e-01 2.00000e-01 -2.93853e-02
1.50000e-01 2.00000e-01 -3.38186e-02
1.00000e-01 2.00000e-01 -3.71162e-02
5.00000e-02 2.00000e-01 -3.91537e-02
4.18164e-15 2.00000e-01 -3.98433e-02
-5.00000e-02 2.00000e-01 -3.91595e-02
-1.00000e-01 2.00000e-01 -3.71358e-02
-1.50000e-01 2.00000e-01 -3.38168e-02
-2.00000e-01 2.00000e-01 -2.93656e-02
-2.50000e-01 2.00000e-01 -2.40090e-02
-3.00000e-01 2.00000e-01 -1.79881e-02
-3.50000e-01 2.00000e-01 -1.17492e-02
-4.00000e-01 2.00000e-01 -6.01297e-03
-4.50000e-01 2.00000e-01 -1.69967e-03
-5.00000e-01 2.00000e-01 0.00000e+00
5.00000e-01 1.50000e-01 0.00000e+00
4.50000e-01 1.50000e-01 -1.93840e-03
4.00000e-01 1.50000e-01 -6.88257e-03
3.50000e-01 1.50000e-01 -1.34383e-02
3.00000e-01 1.50000e-01 -2.06156e-02
2.50000e-01 1.50000e-01 -2.75962e-02
2.00000e-01 1.50000e-01 -3.38230e-02
1.50000e-01 1.50000e-01 -3.89519e-02
1.00000e-01 1.50000e-01 -4.27906e-02
5.00000e-02 1.50000e-01 -4.51748e-02
1.36130e-14 1.50000e-01 -4.59783e-02
-5.00000e-02 1.50000e-01 -4.51821e-02
-1.00000e-01 1.50000e-01 -4.28017e-02
-1.50000e-01 1.50000e-01 -3.89474e-02
-2.00000e-01 1.50000e-01 -3.38031e-02
-2.50000e-01 1.50000e-01 -2.75854e-02
-3.00000e-01 1.50000e-01 -2.06233e-02
-3.50000e-01 1.50000e-01 -1.34415e-02
-4.00000e-01 1.50000e-01 -6.87888e-03
-4.50000e-01 1.50000e-01 -1.93958e-03
-5.00000e-01 1.50000e-01 0.00000e+00
5.00000e-01 1.00000e-01 0.00000e+00
4.50000e-01 1.00000e-01 -2.12131e-03
4.00000e-01 1.00000e-01 -7.51721e-03
3.50000e-01 1.00000e-01 -1.47028e-02
3.00000e-01 1.00000e-01 -2.25791e-02
2.50000e-01 1.00000e-01 -3.02616e-02
2.00000e-01 1.00000e-01 -3.71263e-02
1.50000e-01 1.00000e-01 -4.27868e-02
1.00000e-01 1.00000e-01 -4.70106e-02
5.00000e-02 1.00000e-01 -4.96517e-02
-5.73033e-15 1.00000e-01 -5.05548e-02
-5.00000e-02 1.00000e-01 -4.96500e-02
-1.00000e-01 1.00000e-01 -4.70180e-02
-1.50000e-01 1.00000e-01 -4.27750e-02
-2.00000e-01 1.00000e-01 -3.70960e-02
-2.50000e-01 1.00000e-01 -3.02310e-02
-3.00000e-01 1.00000e-01 -2.25653e-02
-3.50000e-01 1.00000e-01 -1.46991e-02
-4.00000e-01 1.00000e-01 -7.51754e-03
-4.50000e-01 1.00000e-01 -2.12287e-03
-5.00000e-01 1.00000e-01 0.00000e+00
5.00000e-01 5.00000e-02 0.00000e+00
4.50000e-01 5.00000e-02 -2.22975e-03
4.00000e-01 5.00000e-02 -7.90851e-03
3.50000e-01 5.00000e-02 -1.54763e-02
3.00000e-01 5.00000e-02 -2.37771e-02
2.50000e-01 5.00000e-02 -3.18827e-02
2.00000e-01 5.00000e-02 -3.91541e-02
1.50000e-01 5.00000e-02 -4.51615e-02
1.00000e-01 5.00000e-02 -4.96356e-02
5.00000e-02 5.00000e-02 -5.24157e-02
1.11074e-14 5.00000e-02 -5.33510e-02
-5.00000e-02 5.00000e-02 -5.24043e-02
-1.00000e-01 5.00000e-02 -4.96389e-02
-1.50000e-01 5.00000e-02 -4.51585e-02
-2.00000e-01 5.00000e-02 -3.91289e-02
-2.50000e-01 5.00000e-02 -3.18561e-02
-3.00000e-01 5.00000e-02 -2.37583e-02
-3.50000e-01 5.00000e-02 -1.54623e-02
-4.00000e-01 5.00000e-02 -7.91014e-03
-4.50000e-01 5.00000e-02 -2.23040e-03
-5.00000e-01 5.00000e-02 0.00000e+00
5.00000e-01 0.00000e+00 0.00000e+00
4.50000e-01 -1.11861e-15 -2.26208e-03
4.00000e-01 1.44974e-14 -8.04141e-03
3.50000e-01 4.65494e-15 -1.57382e-02
3.00000e-01 -7.15135e-15 -2.41858e-02
2.50000e-01 -8.91481e-15 -3.24306e-02
2.00000e-01 -1.42291e-14 -3.98301e-02
1.50000e-01 1.27126e-16 -4.59500e-02
1.00000e-01 2.51472e-14 -5.05414e-02
5.00000e-02 -1.89094e-14 -5.33638e-02
-1.21477e-14 1.11428e-14 -5.42955e-02
-5.00000e-02 -7.53105e-15 -5.33466e-02
-1.00000e-01 7.19177e-15 -5.05505e-02
-1.50000e-01 -3.97116e-16 -4.59645e-02
-2.00000e-01 -3.41432e-15 -3.98163e-02
-2.50000e-01 4.33996e-15 -3.23997e-02
-3.00000e-01 5.44721e-15 -2.41475e-02
-3.50000e-01 -4.17251e-15 -1.57129e-02
-4.00000e-01 -1.24669e-14 -8.03798e-03
-4.50000e-01 2.04239e-15 -2.27162e-03
-5.00000e-01 0.00000e+00 0.00000e+00
5.00000e-01 -5.00000e-02 0.00000e+00
4.50000e-01 -5.00000e-02 -2.22921e-03
4.00000e-01 -5.00000e-02 -7.91153e-03
3.50000e-01 -5.00000e-02 -1.54779e-02
3.00000e-01 -5.00000e-02 -2.37891e-02
2.50000e-01 -5.00000e-02 -3.18863e-02
2.00000e-01 -5.00000e-02 -3.91321e-02
1.50000e-01 -5.00000e-02 -4.51484e-02
1.00000e-01 -5.00000e-02 -4.96426e-02
5.00000e-02 -5.00000e-02 -5.24367e-02
-8.37259e-17 -5.00000e-02 -5.33682e-02
-5.00000e-02 -5.00000e-02 -5.24302e-02
-1.00000e-01 -5.00000e-02 -4.96465e-02
-1.50000e-01 -5.00000e-02 -4.51549e-02
-2.00000e-01 -5.00000e-02 -3.91321e-02
-2.50000e-01 -5.00000e-02 -3.18598e-02
-3.00000e-01 -5.00000e-02 -2.37573e-02
-3.50000e-01 -5.00000e-02 -1.54594e-02
-4.00000e-01 -5.00000e-02 -7.90883e-03
-4.50000e-01 -5.00000e-02 -2.23664e-03
-5.00000e-01 -5.00000e-02 0.00000e+00
5.00000e-01 -1.00000e-01 0.00000e+00
4.50000e-01 -1.00000e-01 -2.12303e-03
4.00000e-01 -1.00000e-01 -7.52760e-03
3.50000e-01 -1.00000e-01 -1.47185e-02
3.00000e-01 -1.00000e-01 -2.25863e-02
2.50000e-01 -1.00000e-01 -3.02454e-02
2.00000e-01 -1.00000e-01 -3.71100e-02
1.50000e-01 -1.00000e-01 -4.27736e-02
1.00000e-01 -1.00000e-01 -4.70117e-02
5.00000e-02 -1.00000e-01 -4.96350e-02
1.08803e-14 -1.00000e-01 -5.05522e-02
-5.00000e-02 -1.00000e-01 -4.96491e-02
-1.00000e-01 -1.00000e-01 -4.70102e-02
-1.50000e-01 -1.00000e-01 -4.27768e-02
-2.00000e-01 -1.00000e-01 -3.71112e-02
-2.50000e-01 -1.00000e-01 -3.02471e-02
-3.00000e-01 -1.00000e-01 -2.25672e-02
-3.50000e-01 -1.00000e-01 -1.46912e-02
-4.00000e-01 -1.00000e-01 -7.52175e-03
-4.50000e-01 -1.00000e-01 -2.12964e-03
-5.00000e-01 -1.00000e-01 0.00000e+00
5.00000e-01 -1.50000e-01 0.00000e+00
4.50000e-01 -1.50000e-01 -1.94289e-03
4.00000e-01 -1.50000e-01 -6.88954e-03
3.50000e-01 -1.50000e-01 -1.34439e-02
3.00000e-01 -1.50000e-01 -2.06152e-02
2.50000e-01 -1.50000e-01 -2.75860e-02
2.00000e-01 -1.50000e-01 -3.38133e-02
1.50000e-01 -1.50000e-01 -3.89527e-02
1.00000e-01 -1.50000e-01 -4.27638e-02
5.00000e-02 -1.50000e-01 -4.51421e-02
2.80812e-15 -1.50000e-01 -4.59464e-02
-5.00000e-02 -1.50000e-01 -4.51416e-02
-1.00000e-01 -1.50000e-01 -4.27539e-02
-1.50000e-01 -1.50000e-01 -3.89349e-02
-2.00000e-01 -1.50000e-01 -3.38200e-02
-2.50000e-01 -1.50000e-01 -2.75935e-02
-3.00000e-01 -1.50000e-01 -2.05997e-02
-3.50000e-01 -1.50000e-01 -1.34121e-02
-4.00000e-01 -1.50000e-01 -6.86936e-03
-4.50000e-01 -1.50000e-01 -1.94345e-03
-5.00000e-01 -1.50000e-01 0.00000e+00
5.00000e-01 -2.00000e-01 0.00000e+00
4.50000e-01 -2.00000e-01 -1.70176e-03
4.00000e-01 -2.00000e-01 -5.99731e-03
3.50000e-01 -2.00000e-01 -1.17118e-02
3.00000e-01 -2.00000e-01 -1.79464e-02
2.50000e-01 -2.00000e-01 -2.39985e-02
2.00000e-01 -2.00000e-01 -2.93875e-02
1.50000e-01 -2.00000e-01 -3.38093e-02
1.00000e-01 -2.00000e-01 -3.71124e-02
5.00000e-02 -2.00000e-01 -3.91340e-02
-1.91974e-14 -2.00000e-01 -3.98218e-02
-5.00000e-02 -2.00000e-01 -3.91211e-02
-1.00000e-01 -2.00000e-01 -3.70776e-02
-1.50000e-01 -2.00000e-01 -3.37868e-02
-2.00000e-01 -2.00000e-01 -2.93682e-02
-2.50000e-01 -2.00000e-01 -2.40068e-02
-3.00000e-01 -2.00000e-01 -1.79458e-02
-3.50000e-01 -2.00000e-01 -1.16867e-02
-4.00000e-01 -2.00000e-01 -5.98166e-03
-4.50000e-01 -2.00000e-01 -1.69315e-03
-5.00000e-01 -2.00000e-01 0.00000e+00
5.00000e-01 -2.50000e-01 0.00000e+00
4.50000e-01 -2.50000e-01 -1.39126e-03
4.00000e-01 -2.50000e-01 -4.93384e-03
3.50000e-01 -2.50000e-01 -9.61077e-03
3.00000e-01 -2.50000e-01 -1.47040e-02
2.50000e-01 -2.50000e-01 -1.96266e-02
2.00000e-01 -2.50000e-01 -2.39885e-02
1.50000e-01 -2.50000e-01 -2.75906e-02
1.00000e-01 -2.50000e-01 -3.02528e-02
5.00000e-02 -2.50000e-01 -3.18859e-02
-1.05677e-14 -2.50000e-01 -3.24259e-02
-5.00000e-02 -2.50000e-01 -3.18722e-02
-1.00000e-01 -2.50000e-01 -3.02223e-02
-1.50000e-01 -2.50000e-01 -2.75611e-02
-2.00000e-01 -2.50000e-01 -2.39775e-02
-2.50000e-01 -2.50000e-01 -1.96315e-02
-3.00000e-01 -2.50000e-01 -1.47072e-02
-3.50000e-01 -2.50000e-01 -9.60106e-03
-4.00000e-01 -2.50000e-01 -4.92741e-03
-4.50000e-01 -2.50000e-01 -1.39592e-03
-5.00000e-01 -2.50000e-01 0.00000e+00
5.00000e-01 -3.00000e-01 0.00000e+00
4.50000e-01 -3.00000e-01 -1.05816e-03
4.00000e-01 -3.00000e-01 -3.72963e-03
3.50000e-01 -3.00000e-01 -7.24937e-03
3.00000e-01 -3.00000e-01 -1.10428e-02
2.50000e-01 -3.00000e-01 -1.46927e-02
2.00000e-01 -3.00000e-01 -1.79465e-02
1.50000e-01 -3.00000e-01 -2.06089e-02
1.00000e-01 -3.00000e-01 -2.25821e-02
5.00000e-02 -3.00000e-01 -2.37696e-02
8.75397e-15 -3.00000e-01 -2.41752e-02
-5.00000e-02 -3.00000e-01 -2.37707e-02
-1.00000e-01 -3.00000e-01 -2.25636e-02
-1.50000e-01 -3.00000e-01 -2.05990e-02
-2.00000e-01 -3.00000e-01 -1.79532e-02
-2.50000e-01 -3.00000e-01 -1.47100e-02
-3.00000e-01 -3.00000e-01 -1.10471e-02
-3.50000e-01 -3.00000e-01 -7.24683e-03
-4.00000e-01 -3.00000e-01 -3.73535e-03
-4.50000e-01 -3.00000e-01 -1.06586e-03
-5.00000e-01 -3.00000e-01 0.00000e+00
5.00000e-01 -3.50000e-01 0.00000e+00
4.50000e-01 -3.50000e-01 -7.01542e-04
4.00000e-01 -3.50000e-01 -2.46415e-03
3.50000e-01 -3.50000e-01 -4.76320e-03
3.00000e-01 -3.50000e-01 -7.23784e-03
2.50000e-01 -3.50000e-01 -9.60894e-03
2.00000e-01 -3.50000e-01 -1.17095e-02
1.50000e-01 -3.50000e-01 -1.34364e-02
1.00000e-01 -3.50000e-01 -1.46930e-02
5.00000e-02 -3.50000e-01 -1.54580e-02
7.84425e-15 -3.50000e-01 -1.57115e-02
-5.00000e-02 -3.50000e-01 -1.54606e-02
-1.00000e-01 -3.50000e-01 -1.46949e-02
-1.50000e-01 -3.50000e-01 -1.34358e-02
-2.00000e-01 -3.50000e-01 -1.17298e-02
-2.50000e-01 -3.50000e-01 -9.62623e-03
-3.00000e-01 -3.50000e-01 -7.24556e-03
-3.50000e-01 -3.50000e-01 -4.75380e-03
-4.00000e-01 -3.50000e-01 -2.46780e-03
-4.50000e-01 -3.50000e-01 -7.04308e-04
-5.00000e-01 -3.50000e-01 0.00000e+00
5.00000e-01 -4.00000e-01 0.00000e+00
4.50000e-01 -4.00000e-01 -3.40684e-04
4.00000e-01 -4.00000e-01 -1.25680e-03
3.50000e-01 -4.00000e-01 -2.45774e-03
3.00000e-01 -4.00000e-01 -3.74179e-03
2.50000e-01 -4.00000e-01 -4.94845e-03
2.00000e-01 -4.00000e-01 -6.00684e-03
1.50000e-01 -4.00000e-01 -6.87376e-03
1.00000e-01 -4.00000e-01 -7.51175e-03
5.00000e-02 -4.00000e-01 -7.89529e-03
-2.11718e-15 -4.00000e-01 -8.01750e-03
-5.00000e-02 -4.00000e-01 -7.88900e-03
-1.00000e-01 -4.00000e-01 -7.51298e-03
-1.50000e-01 -4.00000e-01 -6.88035e-03
-2.00000e-01 -4.00000e-01 -6.02090e-03
-2.50000e-01 -4.00000e-01 -4.96301e-03
-3.00000e-01 -4.00000e-01 -3.74288e-03
-3.50000e-01 -4.00000e-01 -2.45815e-03
-4.00000e-01 -4.00000e-01 -1.25024e-03
-4.50000e-01 -4.00000e-01 -3.36950e-04
-5.00000e-01 -4.00000e-01 0.00000e+00
5.00000e-01 -4.50000e-01 0.00000e+00
4.50000e-01 -4.50000e-01 -8.82857e-05
4.00000e-01 -4.50000e-01 -3.38468e-04
3.50000e-01 -4.50000e-01 -7.02437e-04
3.00000e-01 -4.50000e-01 -1.06585e-03
2.50000e-01 -4.50000e-01 -1.40650e-03
2.00000e-01 -4.50000e-01 -1.69910e-03
1.50000e-01 -4.50000e-01 -1.94054e-03
1.00000e-01 -4.50000e-01 -2.11788e-03
5.00000e-02 -4.50000e-01 -2.22848e-03
1.72416e-14 -4.50000e-01 -2.25918e-03
-5.00000e-02 -4.50000e-01 -2.22108e-03
-1.00000e-01 -4.50000e-01 -2.11863e-03
-1.50000e-01 -4.50000e-01 -1.94070e-03
-2.00000e-01 -4.50000e-01 -1.70549e-03
-2.50000e-01 -4.50000e-01 -1.40843e-03
-3.00000e-01 -4.50000e-01 -1.07172e-03
-3.50000e-01 -4.50000e-01 -6.98309e-04
-4.00000e-01 -4.50000e-01 -3.28539e-04
-4.50000e-01 -4.50000e-01 -8.68894e-05
-5.00000e-01 -4.50000e-01 0.00000e+00
5.00000e-01 -5.00000e-01 0.00000e+00
4.50000e-01 -5.00000e-01 0.00000e+00
4.00000e-01 -5.00000e-01 0.00000e+00
3.50000e-01 -5.00000e-01 0.00000e+00
3.00000e-01 -5.00000e-01 0.00000e+00
2.50000e-01 -5.00000e-01 0.00000e+00
2.00000e-01 -5.00000e-01 0.00000e+00
1.50000e-01 -5.00000e-01 0.00000e+00
1.00000e-01 -5.00000e-01 0.00000e+00
5.00000e-02 -5.00000e-01 0.00000e+00
0.00000e+00 -5.00000e-01 0.00000e+00
-5.00000e-02 -5.00000e-01 0.00000e+00
-1.00000e-01 -5.00000e-01 0.00000e+00
-1.50000e-01 -5.00000e-01 0.00000e+00
-2.00000e-01 -5.00000e-01 0.00000e+00
-2.50000e-01 -5.00000e-01 0.00000e+00
-3.00000e-01 -5.00000e-01 0.00000e+00
-3.50000e-01 -5.00000e-01 0.00000e+00
-4.00000e-01 -5.00000e-01 0.00000e+00
-4.50000e-01 -5.00000e-01 0.00000e+00
-5.00000e-01 -5.00000e-01 0.00000e+00
CELLS 400 2000
4 0 1 22 21
4 1 2 23 22
4 2 3 24 23
4 3 4 25 24
4 4 5 26 25
4 5 6 27 26
4 6 7 28 27
4 7 8 29 28
4 8 9 30 29
4 9 10 31 30
4 10 11 32 31
4 11 12 33 32
4 12 13 34 33
4 13 14 35 34
4 14 15 36 35
4 15 16 37 36
4 16 17 38 37
4 17 18 39 38
4 18 19 40 39
4 19 20 41 40
4 21 22 43 42
4 22 23 44 43
4 23 24 45 44
4 24 25 46 45
4 25 26 47 46
4 26 27 48 47
4 27 28 49 48
4 28 29 50 49
4 29 30 51 50
4 30 31 52 51
4 31 32 53 52
4 32 33 54 53
4 33 34 55 54
4 34 35 56 55
4 35 36 57 56
4 36 37 58 57
4 37 38 59 58
4 38 39 60 59
4 39 40 61 60
4 40 41 62 61
4 42 43 64 63
4 43 44 65 64
4 44 45 66 65
4 45 46 67 66
4 46 47 68 67
4 47 48 69 68
4 48 49 70 69
4 49 50 71 70
4 50 51 72 71
4 51 52 73 72
4 52 53 74 73
4 53 54 75 74
4 54 55 76 75
4 55 56 77 76
4 56 57 78 77
4 57 58 79 78
4 58 59 80 79
4 59 60 81 80
4 60 61 82 81
4 61 62 83 82
4 63 64 85 84
4 64 65 86 85
4 65 66 87 86
4 66 67 88 87
4 67 68 89 88
4 68 69 90 89
4 69 70 91 90
4 70 71 92 91
4 71 72 93 92
4 72 73 94 93
4 73 74 95 94
4 74 75 96 95
4 75 76 97 96
4 76 77 98 97
4 77 78 99 98
4 78 79 100 99
4 79 80 101 100
4 80 81 102 101
4 81 82 103 102
4 82 83 104 103
4 84 85 106 105
4 85 86 107 106
4 86 87 108 107
4 87 88 109 108
4 88 89 110 109
4 89 90 111 110
4 90 91 112 111
4 91 92 113 112
4 92 93 114 113
4 93 94 115 114
4 94 95 116 115
4 95 96 117 116
4 96 97 118 117
4 97 98 119 118
4 98 99 120 119
4 99 100 121 120
4 100 101 122 121
4 101 102 123 122
4 102 103 124 123
4 103 104 125 124
4 105 106 127 126
4 106 107 128 127
4 107 108 129 128
4 108 109 130 129
4 109 110 131 130
4 110 111 132 131
4 111 112 133 132
4 112 113 134 133
4 113 114 135 134
4 114 115 136 135
4 115 116 137 136
4 116 117 138 137
4 117 118 139 138
4 118 119 140 139
4 119 120 141 140
4 120 121 142 141
4 121 122 143 142
4 122 123 144 143
4 123 124 145 144
4 124 125 146 145
4 126 127 148 147
4 127 128 149 148
4 128 129 150 149
4 129 130 151 150
4 130 131 152 151
4 131 132 153 152
4 132 133 154 153
4 133 134 155 154
4 134 135 156 155
4 135 136 157 156
4 136 137 158 157
4 137 138 159 158
4 138 139 160 159
4 139 140 161 160
4 140 141 162 161
4 141 142 163 162
4 142 143 164 163
4 143 144 165 164
4 144 145 166 165
4 145 146 167 166
4 147 148 169 168
4 148 149 170 169
4 149 150 171 170
4 150 151 172 171
4 151 152 173 172
4 152 153 174 173
4 153 154 175 174
4 154 155 176 175
4 155 156 177 176
4 156 157 178 177
4 157 158 179 178
4 158 159 180 179
4 159 160 181 180
4 160 161 182 181
4 161 162 183 182
4 162 163 184 183
4 163 164 185 184
4 164 165 186 185
4 165 166 187 186
4 166 167 188 187
4 168 169 190 189
4 169 170 191 190
4 170 171 192 191
4 171 172 193 192
4 172 173 194 193
4 173 174 195 194
4 174 175 196 195
4 175 176 197 196
4 176 177 198 197
4 177 178 199 198
4 178 179 200 199
4 179 180 201 200
4 180 181 202 201
4 181 182 203 202
4 182 183 204 203
4 183 184 205 204
4 184 185 206 205
4 185 186 207 206
4 186 187 208 207
4 187 188 209 208
4 189 190 211 210
4 190 191 212 211
4 191 192 213 212
4 192 193 214 213
4 193 194 215 214
4 194 195 216 215
4 195 196 217 216
4 196 197 218 217
4 197 198 219 218
4 198 199 220 219
4 199 200 221 220
4 200 201 222 221
4 201 202 223 222
4 202 203 224 223
4 203 204 225 224
4 204 205 226 225
4 205 206 227 226
4 206 207 228 227
4 207 208 229 228
4 208 209 230 229
4 210 211 232 231
4 211 212 233 232
4 212 213 234 233
4 213 214 235 234
4 214 215 236 235
4 215 216 237 236
4 216 217 238 237
4 217 218 239 238
4 218 219 240 239
4 219 220 241 240
4 220 221 242 241
4 221 222 243 242
4 222 223 244 243
4 223 224 245 244
4 224 225 246 245
4 225 226 247 246
4 226 227 248 247
4 227 228 249 248
4 228 229 250 249
4 229 230 251 250
4 231 232 253 252
4 232 233 254 253
4 233 234 255 254
4 234 235 256 255
4 235 236 257 256
4 236 237 258 257
4 237 238 259 258
4 238 239 260 259
4 239 240 261 260
4 240 241 262 261
4 241 242 263 262
4 242 243 264 263
4 243 244 265 264
4 244 245 266 265
4 245 246 267 266
4 246 247 268 267
4 247 248 269 268
4 248 249 270 269
4 249 250 271 270
4 250 251 272 271
4 252 253 274 273
4 253 254 275 274
4 254 255 276 275
4 255 256 277 276
4 256 257 278 277
4 257 258 279 278
4 258 259 280 279
4 259 260 281 280
4 260 261 282 281
4 261 262 283 282
4 262 263 284 283
4 263 264 285 284
4 264 265 286 285
4 265 266 287 286
4 266 267 288 287
4 267 268 289 288
4 268 269 290 289
4 269 270 291 290
4 270 271 292 291
4 271 272 293 292
4 273 274 295 294
4 274 275 296 295
4 275 276 297 296
4 276 277 298 297
4 277 278 299 298
4 278 279 300 299
4 279 280 301 300
4 280 281 302 301
4 281 282 303 302
4 282 283 304 303
4 283 284 305 304
4 284 285 306 305
4 285 286 307 306
4 286 287 308 307
4 287 288 309 308
4 288 289 310 309
4 289 290 311 310
4 290 291 312 311
4 291 292 313 312
4 292 293 314 313
4 294 295 316 315
4 295 296 317 316
4 296 297 318 317
4 297 298 319 318
4 298 299 320 319
4 299 300 321 320
4 300 301 322 321
4 301 302 323 322
4 302 303 324 323
4 303 304 325 324
4 304 305 326 325
4 305 306 327 326
4 306 307 328 327
4 307 308 329 328
4 308 309 330 329
4 309 310 331 330
4 310 311 332 331
4 311 312 333 332
4 312 313 334 333
4 313 314 335 334
4 315 316 337 336
4 316 317 338 337
4 317 318 339 338
4 318 319 340 339
4 319 320 341 340
4 320 321 342 341
4 321 322 343 342
4 322 323 344 343
4 323 324 345 344
4 324 325 346 345
4 325 326 347 346
4 326 327 348 347
4 327 328 349 348
4 328 329 350 349
4 329 330 351 350
4 330 331 352 351
4 331 332 353 352
4 332 333 354 353
4 333 334 355 354
4 334 335 356 355
4 336 337 358 357
4 337 338 359 358
4 338 339 360 359
4 339 340 361 360
4 340 341 362 361
4 341 342 363 362
4 342 343 364 363
4 343 344 365 364
4 344 345 366 365
4 345 346 367 366
4 346 347 368 367
4 347 348 369 368
4 348 349 370 369
4 349 350 371 370
4 350 351 372 371
4 351 352 373 372
4 352 353 374 373
4 353 354 375 374
4 354 355 376 375
4 355 356 377 376
4 357 358 379 378
4 358 359 380 379
4 359 360 381 380
4 360 361 382 381
4 361 362 383 382
4 362 363 384 383
4 363 364 385 384
4 364 365 386 385
4 365 366 387 386
4 366 367 388 387
4 367 368 389 388
4 368 369 390 389
4 369 370 391 390
4 370 371 392 391
4 371 372 393 392
4 372 373 394 393
4 373 374 395 394
4 374 375 396 395
4 375 376 397 396
4 376 377 398 397
4 378 379 400 399
4 379 380 401 400
4 380 381 402 401
4 381 382 403 402
4 382 383 404 403
4 383 384 405 404
4 384 385 406 405
4 385 386 407 406
4 386 387 408 407
4 387 388 409 408
4 388 389 410 409
4 389 390 411 410
4 390 391 412 411
4 391 392 413 412
4 392 393 414 413
4 393 394 415 414
4 394 395 416 415
4 395 396 417 416
4 396 397 418 417
4 397 398 419 418
4 399 400 421 420
4 400 401 422 421
4 401 402 423 422
4 402 403 424 423
4 403 404 425 424
4 404 405 426 425
4 405 406 427 426
4 406 407 428 427
4 407 408 429 428
4 408 409 430 429
4 409 410 431 430
4 410 411 432 431
4 411 412 433 432
4 412 413 434 433
4 413 414 435 434
4 414 415 436 435
4 415 416 437 436
4 416 417 438 437
4 417 418 439 438
4 418 419 440 439
CELL_TYPES 441
9
9
9
9
9
9
9
9
9
9
9
9
9
9
9
9
9
9
9
9
9
9
9
9
9
9
9
9
9
9
9
9
9
9
9
9
9
9
9
9
9
9
9
9
9
9
9
9
9
9
9
9
9
9
9
9
9
9
9
9
9
9
9
9
9
9
9
9
9
9
9
9
9
9
9
9
9
9
9
9
9
9
9
9
9
9
9
9
9
9
9
9
9
9
9
9
9
9
9
9
9
9
9
9
9
9
9
9
9
9
9
9
9
9
9
9
9
9
9
9
9
9
9
9
9
9
9
9
9
9
9
9
9
9
9
9
9
9
9
9
9
9
9
9
9
9
9
9
9
9
9
9
9
9
9
9
9
9
9
9
9
9
9
9
9
9
9
9
9
9
9
9
9
9
9
9
9
9
9
9
9
9
9
9
9
9
9
9
9
9
9
9
9
9
9
9
9
9
9
9
9
9
9
9
9
9
9
9
9
9
9
9
9
9
9
9
9
9
9
9
9
9
9
9
9
9
9
9
9
9
9
9
9
9
9
9
9
9
9
9
9
9
9
9
9
9
9
9
9
9
9
9
9
9
9
9
9
9
9
9
9
9
9
9
9
9
9
9
9
9
9
9
9
9
9
9
9
9
9
9
9
9
9
9
9
9
9
9
9
9
9
9
9
9
9
9
9
9
9
9
9
9
9
9
9
9
9
9
9
9
9
9
9
9
9
9
9
9
9
9
9
9
9
9
9
9
9
9
9
9
9
9
9
9
9
9
9
9
9
9
9
9
9
9
9
9
9
9
9
9
9
9
9
9
9
9
9
9
9
9
9
9
9
9
9
9
9
9
9
9
9
9
9
9
9
9
9
9
9
9
9
9
9
9
9
9
9
9
9
9
9
9
9
9
9
9
9
9
9
9
9
9
9
9
9
9
9
9
9
9
9
9
9
9
9
9
9
9
9
9
9
9
9
9
9
9
9
9
9
9
9
9
9
9
9
9
9
9
9
9
9
POINT_DATA 441
SCALARS Mises float 1
LOOKUP_TABLE default
0.00000e+00
0.00000e+00
0.00000e+00
0.00000e+00
0.00000e+00
0.00000e+00
0.00000e+00
0.00000e+00
0.00000e+00
0.00000e+00
0.00000e+00
0.00000e+00
0.00000e+00
0.00000e+00
0.00000e+00
0.00000e+00
0.00000e+00
0.00000e+00
0.00000e+00
0.00000e+00
0.00000e+00
0.00000e+00
0.00000e+00
0.00000e+00
0.00000e+00
0.00000e+00
0.00000e+00
0.00000e+00
0.00000e+00
0.00000e+00
0.00000e+00
0.00000e+00
0.00000e+00
0.00000e+00
0.00000e+00
0.00000e+00
0.00000e+00
0.00000e+00
0.00000e+00
0.00000e+00
0.00000e+00
0.00000e+00
0.00000e+00
0.00000e+00
0.00000e+00
0.00000e+00
0.00000e+00
0.00000e+00
0.00000e+00
0.00000e+00
0.00000e+00
0.00000e+00
0.00000e+00
0.00000e+00
0.00000e+00
0.00000e+00
0.00000e+00
0.00000e+00
0.00000e+00
0.00000e+00
0.00000e+00
0.00000e+00
0.00000e+00
0.00000e+00
0.00000e+00
0.00000e+00
0.00000e+00
0.00000e+00
0.00000e+00
0.00000e+00
0.00000e+00
0.00000e+00
0.00000e+00
0.00000e+00
0.00000e+00
0.00000e+00
0.00000e+00
0.00000e+00
0.00000e+00
0.00000e+00
0.00000e+00
0.00000e+00
0.00000e+00
0.00000e+00
0.00000e+00
0.00000e+00
0.00000e+00
0.00000e+00
0.00000e+00
0.00000e+00
0.00000e+00
0.00000e+00
0.00000e+00
0.00000e+00
0.00000e+00
0.00000e+00
0.00000e+00
0.00000e+00
0.00000e+00
0.00000e+00
0.00000e+00
0.00000e+00
0.00000e+00
0.00000e+00
0.00000e+00
0.00000e+00
0.00000e+00
0.00000e+00
0.00000e+00
0.00000e+00
0.00000e+00
0.00000e+00
0.00000e+00
0.00000e+00
0.00000e+00
0.00000e+00
0.00000e+00
0.00000e+00
0.00000e+00
0.00000e+00
0.00000e+00
0.00000e+00
0.00000e+00
0.00000e+00
0.00000e+00
0.00000e+00
0.00000e+00
0.00000e+00
0.00000e+00
0.00000e+00
0.00000e+00
0.00000e+00
0.00000e+00
0.00000e+00
0.00000e+00
0.00000e+00
0.00000e+00
0.00000e+00
0.00000e+00
0.00000e+00
0.00000e+00
0.00000e+00
0.00000e+00
0.00000e+00
0.00000e+00
0.00000e+00
0.00000e+00
0.00000e+00
0.00000e+00
0.00000e+00
0.00000e+00
0.00000e+00
0.00000e+00
0.00000e+00
0.00000e+00
0.00000e+00
0.00000e+00
0.00000e+00
0.00000e+00
0.00000e+00
0.00000e+00
0.00000e+00
0.00000e+00
0.00000e+00
0.00000e+00
0.00000e+00
0.00000e+00
0.00000e+00
0.00000e+00
0.00000e+00
0.00000e+00
0.00000e+00
0.00000e+00
0.00000e+00
0.00000e+00
0.00000e+00
0.00000e+00
0.00000e+00
0.00000e+00
0.00000e+00
0.00000e+00
0.00000e+00
0.00000e+00
0.00000e+00
0.00000e+00
0.00000e+00
0.00000e+00
0.00000e+00
0.00000e+00
0.00000e+00
0.00000e+00
0.00000e+00
0.00000e+00
0.00000e+00
0.00000e+00
0.00000e+00
0.00000e+00
0.00000e+00
0.00000e+00
0.00000e+00
0.00000e+00
0.00000e+00
0.00000e+00
0.00000e+00
0.00000e+00
0.00000e+00
0.00000e+00
0.00000e+00
0.00000e+00
0.00000e+00
0.00000e+00
0.00000e+00
0.00000e+00
0.00000e+00
0.00000e+00
0.00000e+00
0.00000e+00
0.00000e+00
0.00000e+00
0.00000e+00
0.00000e+00
0.00000e+00
0.00000e+00
0.00000e+00
0.00000e+00
0.00000e+00
0.00000e+00
0.00000e+00
0.00000e+00
0.00000e+00
0.00000e+00
0.00000e+00
0.00000e+00
0.00000e+00
0.00000e+00
0.00000e+00
0.00000e+00
0.00000e+00
0.00000e+00
0.00000e+00
0.00000e+00
0.00000e+00
0.00000e+00
0.00000e+00
0.00000e+00
0.00000e+00
0.00000e+00
0.00000e+00
0.00000e+00
0.00000e+00
0.00000e+00
0.00000e+00
0.00000e+00
0.00000e+00
0.00000e+00
0.00000e+00
0.00000e+00
0.00000e+00
0.00000e+00
0.00000e+00
0.00000e+00
0.00000e+00
0.00000e+00
0.00000e+00
0.00000e+00
0.00000e+00
0.00000e+00
0.00000e+00
0.00000e+00
0.00000e+00
0.00000e+00
0.00000e+00
0.00000e+00
0.00000e+00
0.00000e+00
0.00000e+00
0.00000e+00
0.00000e+00
0.00000e+00
0.00000e+00
0.00000e+00
0.00000e+00
0.00000e+00
0.00000e+00
0.00000e+00
0.00000e+00
0.00000e+00
0.00000e+00
0.00000e+00
0.00000e+00
0.00000e+00
0.00000e+00
0.00000e+00
0.00000e+00
0.00000e+00
0.00000e+00
0.00000e+00
0.00000e+00
0.00000e+00
0.00000e+00
0.00000e+00
0.00000e+00
0.00000e+00
0.00000e+00
0.00000e+00
0.00000e+00
0.00000e+00
0.00000e+00
0.00000e+00
0.00000e+00
0.00000e+00
0.00000e+00
0.00000e+00
0.00000e+00
0.00000e+00
0.00000e+00
0.00000e+00
0.00000e+00
0.00000e+00
0.00000e+00
0.00000e+00
0.00000e+00
0.00000e+00
0.00000e+00
0.00000e+00
0.00000e+00
0.00000e+00
0.00000e+00
0.00000e+00
0.00000e+00
0.00000e+00
0.00000e+00
0.00000e+00
0.00000e+00
0.00000e+00
0.00000e+00
0.00000e+00
0.00000e+00
0.00000e+00
0.00000e+00
0.00000e+00
0.00000e+00
0.00000e+00
0.00000e+00
0.00000e+00
0.00000e+00
0.00000e+00
0.00000e+00
0.00000e+00
0.00000e+00
0.00000e+00
0.00000e+00
0.00000e+00
0.00000e+00
0.00000e+00
0.00000e+00
0.00000e+00
0.00000e+00
0.00000e+00
0.00000e+00
0.00000e+00
0.00000e+00
0.00000e+00
0.00000e+00
0.00000e+00
0.00000e+00
0.00000e+00
0.00000e+00
0.00000e+00
0.00000e+00
0.00000e+00
0.00000e+00
0.00000e+00
0.00000e+00
0.00000e+00
0.00000e+00
0.00000e+00
0.00000e+00
0.00000e+00
0.00000e+00
0.00000e+00
0.00000e+00
0.00000e+00
0.00000e+00
0.00000e+00
0.00000e+00
0.00000e+00
0.00000e+00
0.00000e+00
0.00000e+00
0.00000e+00
0.00000e+00
0.00000e+00
0.00000e+00
0.00000e+00
0.00000e+00
0.00000e+00
0.00000e+00
0.00000e+00
0.00000e+00
0.00000e+00
0.00000e+00
0.00000e+00
0.00000e+00
0.00000e+00
0.00000e+00
0.00000e+00
0.00000e+00
0.00000e+00
0.00000e+00
0.00000e+00
0.00000e+00
0.00000e+00
0.00000e+00
0.00000e+00
0.00000e+00
0.00000e+00
0.00000e+00
0.00000e+00
0.00000e+00
0.00000e+00
0.00000e+00
0.00000e+00
0.00000e+00
0.00000e+00
0.00000e+00
0.00000e+00
0.00000e+00
0.00000e+00
0.00000e+00
0.00000e+00
0.00000e+00
0.00000e+00
0.00000e+00
0.00000e+00
0.00000e+00
0.00000e+00
0.00000e+00
0.00000e+00
0.00000e+00
0.00000e+00
VECTORS Disp float
0.00000e+00 0.00000e+00 0.00000e+00
0.00000e+00 0.00000e+00 0.00000e+00
0.00000e+00 0.00000e+00 0.00000e+00
0.00000e+00 0.00000e+00 0.00000e+00
0.00000e+00 0.00000e+00 0.00000e+00
0.00000e+00 0.00000e+00 0.00000e+00
0.00000e+00 0.00000e+00 0.00000e+00
0.00000e+00 0.00000e+00 0.00000e+00
0.00000e+00 0.00000e+00 0.00000e+00
0.00000e+00 0.00000e+00 0.00000e+00
0.00000e+00 0.00000e+00 0.00000e+00
0.00000e+00 0.00000e+00 0.00000e+00
0.00000e+00 0.00000e+00 0.00000e+00
0.00000e+00 0.00000e+00 0.00000e+00
0.00000e+00 0.00000e+00 0.00000e+00
0.00000e+00 0.00000e+00 0.00000e+00
0.00000e+00 0.00000e+00 0.00000e+00
0.00000e+00 0.00000e+00 0.00000e+00
0.00000e+00 0.00000e+00 0.00000e+00
0.00000e+00 0.00000e+00 0.00000e+00
0.00000e+00 0.00000e+00 0.00000e+00
0.00000e+00 0.00000e+00 0.00000e+00
9.29628e-15 -3.56715e-15 -8.80472e-05
-5.35427e-15 1.20973e-14 -3.41827e-04
2.72496e-15 1.23680e-16 -6.99149e-04
1.25362e-14 -2.50522e-14 -1.06255e-03
-1.44545e-14 2.61044e-14 -1.40234e-03
-5.16074e-15 -8.11331e-15 -1.69190e-03
-3.22098e-15 7.81277e-15 -1.93432e-03
1.59825e-14 -3.76077e-15 -2.12217e-03
-6.96844e-15 -8.04756e-15 -2.23660e-03
-1.90579e-14 3.26773e-15 -2.27179e-03
-9.86643e-16 6.86925e-15 -2.23547e-03
1.69992e-14 -1.89487e-15 -2.12195e-03
-5.79562e-16 -1.90775e-14 -1.93514e-03
2.54596e-15 1.64209e-14 -1.68888e-03
3.40957e-15 4.62681e-16 -1.38890e-03
3.25684e-16 4.99422e-15 -1.05268e-03
-2.57610e-14 -3.37968e-15 -6.95387e-04
2.85929e-14 -1.57114e-14 -3.44726e-04
1.48136e-15 1.34289e-14 -9.18273e-05
0.00000e+00 0.00000e+00 0.00000e+00
0.00000e+00 0.00000e+00 0.00000e+00
-1.12898e-14 1.24017e-14 -3.41488e-04
8.21771e-15 2.81706e-15 -1.25324e-03
-7.91391e-15 -6.92122e-15 -2.46246e-03
9.34824e-15 -8.42139e-15 -3.74101e-03
-5.30286e-15 6.03348e-15 -4.93460e-03
1.29865e-14 3.18624e-15 -5.99204e-03
2.18350e-14 -1.34171e-14 -6.86920e-03
1.21210e-14 -7.63647e-15 -7.52238e-03
2.50177e-14 3.45921e-15 -7.92443e-03
1.84046e-14 -1.04981e-14 -8.05826e-03
1.01585e-14 -3.72715e-16 -7.92261e-03
-1.77072e-15 -9.88431e-15 -7.51495e-03
-2.15936e-14 6.87996e-15 -6.86440e-03
-1.53338e-14 -1.16099e-15 -5.99234e-03
3.30713e-16 -1.38339e-14 -4.92991e-03
-3.81492e-14 2.63128e-14 -3.71808e-03
-1.75964e-15 -7.20639e-15 -2.45658e-03
-3.25858e-14 2.89734e-15 -1.24924e-03
-1.60982e-14 1.18490e-14 -3.39037e-04
0.00000e+00 0.00000e+00 0.00000e+00
0.00000e+00 0.00000e+00 0.00000e+00
-2.86857e-15 -1.69337e-14 -7.02341e-04
3.34410e-15 2.09400e-14 -2.46913e-03
1.24584e-14 -1.37009e-14 -4.76185e-03
-1.64050e-14 -1.11623e-14 -7.24823e-03
2.16036e-14 3.43155e-15 -9.61970e-03
1.07371e-14 1.54993e-14 -1.17028e-02
8.24770e-15 -1.76200e-14 -1.34194e-02
7.52974e-16 -6.86385e-15 -1.46998e-02
9.52659e-15 2.22554e-14 -1.54780e-02
1.10661e-14 -7.40634e-15 -1.57382e-02
1.02829e-14 5.93904e-15 -1.54744e-02
-3.05474e-15 5.48530e-15 -1.46933e-02
-3.57311e-15 1.92180e-14 -1.34230e-02
8.78489e-15 -2.61338e-14 -1.17181e-02
-4.68949e-15 2.61828e-14 -9.62046e-03
2.15068e-14 -3.46564e-15 -7.25272e-03
-2.07600e-14 -1.45219e-14 -4.75755e-03
2.05263e-16 1.58656e-14 -2.45162e-03
1.64039e-14 -2.60413e-14 -6.92581e-04
0.00000e+00 0.00000e+00 0.00000e+00
0.00000e+00 0.00000e+00 0.00000e+00
6.27683e-15 -9.89419e-15 -1.06178e-03
5.31347e-15 7.40830e-15 -3.73762e-03
2.31741e-15 9.44762e-15 -7.25201e-03
1.41296e-14 -1.54427e-14 -1.10612e-02
-2.44406e-14 2.95974e-16 -1.47158e-02
-5.28442e-15 1.46249e-14 -1.79470e-02
-5.75595e-15 -5.89676e-15 -2.05872e-02
-8.61455e-15 -4.36259e-15 -2.25523e-02
-1.77491e-14 2.58925e-14 -2.37645e-02
-1.08941e-14 2.66228e-15 -2.41753e-02
-1.26315e-14 2.20826e-15 -2.37757e-02
-8.25087e-15 2.46835e-14 -2.25640e-02
1.45583e-14 -8.65310e-15 -2.06055e-02
-6.26119e-15 1.21081e-14 -1.79509e-02
4.92345e-14 2.16924e-15 -1.47193e-02
-5.53494e-15 -1.61967e-14 -1.10698e-02
1.96948e-14 2.41346e-14 -7.26136e-03
2.84004e-14 -2.73306e-14 -3.73038e-03
-2.72951e-14 -1.40145e-15 -1.05488e-03
0.00000e+00 0.00000e+00 0.00000e+00
0.00000e+00 0.00000e+00 0.00000e+00
-6.43330e-15 1.49939e-14 -1.40017e-03
4.71771e-15 -3.84413e-15 -4.94384e-03
2.21943e-14 -7.05831e-15 -9.62598e-03
-1.09703e-14 8.35881e-15 -1.47129e-02
1.25949e-14 -8.48062e-16 -1.96364e-02
-1.87819e-14 1.05123e-14 -2.40011e-02
-2.44835e-15 4.42350e-15 -2.75712e-02
-3.11382e-14 6.83386e-15 -3.02323e-02
-2.34053e-14 2.28724e-15 -3.18735e-02
-1.43453e-14 -1.26008e-15 -3.24253e-02
-2.19231e-14 -2.89734e-16 -3.18854e-02
9.08012e-15 -2.06046e-14 -3.02596e-02
-2.30805e-14 -1.03480e-14 -2.75875e-02
3.87100e-14 -3.15346e-16 -2.39874e-02
-1.38888e-14 -1.13444e-14 -1.96375e-02
2.48712e-14 3.36711e-14 -1.47437e-02
3.65023e-15 -1.67716e-14 -9.65661e-03
-3.82354e-15 6.95102e-15 -4.95393e-03
1.74257e-14 1.47494e-14 -1.39745e-03
0.00000e+00 0.00000e+00 0.00000e+00
0.00000e+00 0.00000e+00 0.00000e+00
1.39824e-14 9.00216e-15 -1.70102e-03
1.06497e-15 9.41753e-15 -6.01202e-03
-1.76440e-14 -2.97327e-14 -1.17245e-02
1.83912e-14 -7.49025e-15 -1.79538e-02
-1.35818e-14 1.89048e-14 -2.39988e-02
1.24168e-14 7.68974e-15 -2.93853e-02
-4.78318e-15 3.60617e-15 -3.38186e-02
2.05757e-15 -1.10006e-14 -3.71162e-02
1.83931e-14 -2.50665e-14 -3.91537e-02
4.18164e-15 -6.16470e-15 -3.98433e-02
-6.18994e-15 1.55239e-14 -3.91595e-02
1.45194e-14 -1.51413e-14 -3.71358e-02
4.91021e-15 1.76588e-15 -3.38168e-02
-4.09218e-14 -1.87974e-14 -2.93656e-02
2.10104e-14 1.51772e-14 -2.40090e-02
-3.18137e-14 1.35781e-14 -1.79881e-02
2.34954e-15 1.34831e-14 -1.17492e-02
1.36909e-14 -1.59947e-14 -6.01297e-03
1.41264e-14 -9.88264e-15 -1.69967e-03
0.00000e+00 0.00000e+00 0.00000e+00
0.00000e+00 0.00000e+00 0.00000e+00
-5.16754e-15 2.14297e-15 -1.93840e-03
-1.21585e-14 6.09048e-15 -6.88257e-03
-1.48860e-14 -1.42219e-14 -1.34383e-02
-2.11678e-14 -8.45008e-15 -2.06156e-02
-6.29714e-15 -1.67619e-15 -2.75962e-02
-1.30897e-15 1.97598e-14 -3.38230e-02
1.82652e-14 -1.03530e-14 -3.89519e-02
1.73685e-14 -1.37560e-14 -4.27906e-02
-1.21780e-15 1.12113e-14 -4.51748e-02
1.36130e-14 1.32415e-15 -4.59783e-02
3.54190e-14 8.59052e-15 -4.51821e-02
-1.37384e-14 1.40659e-14 -4.28017e-02
-3.04426e-14 -1.75640e-14 -3.89474e-02
-1.79922e-15 -1.95084e-14 -3.38031e-02
-5.78854e-15 6.91488e-15 -2.75854e-02
-1.61518e-14 9.74098e-15 -2.06233e-02
-3.27459e-14 -1.14759e-14 -1.34415e-02
-2.13486e-14 5.60582e-15 -6.87888e-03
-2.30698e-15 -3.77409e-15 -1.93958e-03
0.00000e+00 0.00000e+00 0.00000e+00
0.00000e+00 0.00000e+00 0.00000e+00
-1.46683e-16 -1.79647e-14 -2.12131e-03
2.09408e-15 1.34359e-14 -7.51721e-03
-7.21077e-15 1.55166e-14 -1.47028e-02
-8.57459e-15 -1.21387e-14 -2.25791e-02
-1.03813e-14 -5.68004e-15 -3.02616e-02
1.27090e-14 7.89790e-15 -3.71263e-02
1.77184e-15 1.61162e-14 -4.27868e-02
-5.66430e-15 -2.89858e-14 -4.70106e-02
2.89576e-14 3.61268e-14 -4.96517e-02
-5.73033e-15 -1.32168e-14 -5.05548e-02
-9.34377e-15 -1.37395e-14 -4.96500e-02
1.54225e-14 5.87008e-14 -4.70180e-02
1.81629e-14 -3.86169e-14 -4.27750e-02
2.60768e-14 -1.07691e-14 -3.70960e-02
-3.30024e-14 2.28314e-14 -3.02310e-02
-4.48553e-15 2.33306e-14 -2.25653e-02
1.28672e-14 -1.46553e-14 -1.46991e-02
4.17326e-15 -3.69249e-14 -7.51754e-03
-7.67354e-15 1.05107e-14 -2.12287e-03
0.00000e+00 0.00000e+00 0.00000e+00
0.00000e+00 0.00000e+00 0.00000e+00
-6.25672e-15 -1.30197e-14 -2.22975e-03
-1.68086e-14 2.30135e-14 -7.90851e-03
-5.77392e-15 9.17781e-15 -1.54763e-02
2.58451e-15 -9.99784e-15 -2.37771e-02
1.11511e-14 -9.77488e-15 -3.18827e-02
1.50741e-14 4.67412e-15 -3.91541e-02
8.22963e-15 -1.75312e-15 -4.51615e-02
-3.49889e-15 -1.96304e-15 -4.96356e-02
-4.57329e-14 -2.45208e-15 -5.24157e-02
1.11074e-14 2.60500e-15 -5.33510e-02
-2.63615e-14 -7.20443e-15 -5.24043e-02
2.52850e-14 1.62897e-14 -4.96389e-02
-3.33544e-15 -1.61668e-14 -4.51585e-02
-9.33269e-15 1.81608e-17 -3.91289e-02
6.25132e-15 1.93590e-14 -3.18561e-02
2.81029e-14 8.16453e-15 -2.37583e-02
2.60287e-14 -1.35394e-14 -1.54623e-02
1.03290e-14 -2.12134e-14 -7.91014e-03
6.10547e-15 6.66967e-15 -2.23040e-03
0.00000e+00 0.00000e+00 0.00000e+00
0.00000e+00 0.00000e+00 0.00000e+00
1.18322e-14 -1.11861e-15 -2.26208e-03
6.96136e-15 1.44974e-14 -8.04141e-03
6.31129e-15 4.65494e-15 -1.57382e-02
3.83472e-15 -7.15135e-15 -2.41858e-02
3.42103e-15 -8.91481e-15 -3.24306e-02
1.11219e-14 -1.42291e-14 -3.98301e-02
3.83044e-15 1.27126e-16 -4.59500e-02
-2.57199e-14 2.51472e-14 -5.05414e-02
4.34880e-14 -1.89094e-14 -5.33638e-02
-1.21477e-14 1.11428e-14 -5.42955e-02
3.11789e-14 -7.53105e-15 -5.33466e-02
-3.85657e-14 7.19177e-15 -5.05505e-02
-9.84911e-15 -3.97116e-16 -4.59645e-02
3.23970e-15 -3.41432e-15 -3.98163e-02
1.23590e-14 4.33996e-15 -3.23997e-02
1.92718e-14 5.44721e-15 -2.41475e-02
9.61116e-15 -4.17251e-15 -1.57129e-02
-1.07712e-14 -1.24669e-14 -8.03798e-03
-7.71517e-15 2.04239e-15 -2.27162e-03
0.00000e+00 0.00000e+00 0.00000e+00
0.00000e+00 0.00000e+00 0.00000e+00
-8.27545e-15 3.25496e-14 -2.22921e-03
-4.72255e-15 -8.78014e-15 -7.91153e-03
8.48155e-16 -2.63512e-14 -1.54779e-02
-5.48558e-15 -1.20370e-14 -2.37891e-02
-6.92094e-15 1.35398e-14 -3.18863e-02
-1.65413e-14 1.33406e-14 -3.91321e-02
-4.30376e-14 -6.02202e-15 -4.51484e-02
2.79347e-14 -1.11606e-14 -4.96426e-02
-3.96761e-14 1.23058e-14 -5.24367e-02
-8.37259e-17 -9.35458e-15 -5.33682e-02
-2.06356e-14 6.88648e-15 -5.24302e-02
9.01613e-15 1.74718e-14 -4.96465e-02
7.00364e-15 3.49330e-15 -4.51549e-02
1.59401e-14 -2.59962e-14 -3.91321e-02
3.50066e-15 -1.08514e-14 -3.18598e-02
-7.60984e-16 2.52631e-15 -2.37573e-02
-1.10012e-14 1.13508e-14 -1.54594e-02
-3.06786e-14 3.70182e-15 -7.90883e-03
-2.13881e-14 3.21427e-15 -2.23664e-03
0.00000e+00 0.00000e+00 0.00000e+00
0.00000e+00 0.00000e+00 0.00000e+00
-2.66274e-15 4.28893e-15 -2.12303e-03
4.58003e-14 -7.74227e-15 -7.52760e-03
5.25921e-14 -8.07680e-15 -1.47185e-02
-5.29299e-15 1.28156e-14 -2.25863e-02
-2.84019e-14 1.87874e-14 -3.02454e-02
3.22619e-15 -1.43574e-14 -3.71100e-02
4.36140e-14 -1.32591e-14 -4.27736e-02
-2.23657e-14 1.02394e-14 -4.70117e-02
2.66976e-14 -6.21090e-15 -4.96350e-02
1.08803e-14 -2.37338e-15 -5.05522e-02
1.02890e-14 1.62441e-15 -4.96491e-02
-5.12628e-15 1.28318e-15 -4.70102e-02
3.14192e-14 -2.43096e-14 -4.27768e-02
-2.19632e-14 -1.45606e-14 -3.71112e-02
-2.61181e-14 1.93249e-15 -3.02471e-02
-2.32247e-14 1.27513e-14 -2.25672e-02
-2.30232e-15 2.38747e-14 -1.46912e-02
1.09795e-14 -7.35000e-16 -7.52175e-03
2.35010e-14 -3.92180e-16 -2.12964e-03
0.00000e+00 0.00000e+00 0.00000e+00
0.00000e+00 0.00000e+00 0.00000e+00
3.71495e-15 -1.66763e-14 -1.94289e-03
-1.10152e-14 -5.09974e-15 -6.88954e-03
2.83746e-15 1.15596e-15 -1.34439e-02
2.05406e-14 1.97664e-15 -2.06152e-02
3.71807e-14 -7.74562e-15 -2.75860e-02
1.19444e-14 1.09725e-14 -3.38133e-02
-2.44320e-14 -1.32918e-15 -3.89527e-02
3.18543e-14 9.12407e-15 -4.27638e-02
-2.69823e-15 -2.09647e-14 -4.51421e-02
2.80812e-15 1.18526e-14 -4.59464e-02
-2.67290e-15 9.22009e-17 -4.51416e-02
1.74860e-14 -7.43521e-15 -4.27539e-02
-7.47154e-15 1.77752e-15 -3.89349e-02
-9.05674e-15 1.22387e-14 -3.38200e-02
2.17720e-14 3.00463e-15 -2.75935e-02
1.82400e-15 1.62708e-14 -2.05997e-02
-3.21213e-16 8.99471e-16 -1.34121e-02
-1.38288e-14 -3.21558e-15 -6.86936e-03
5.86892e-15 -1.96373e-14 -1.94345e-03
0.00000e+00 0.00000e+00 0.00000e+00
0.00000e+00 0.00000e+00 0.00000e+00
-1.09607e-15 -4.79203e-15 -1.70176e-03
1.54776e-15 1.01502e-14 -5.99731e-03
-1.57629e-14 5.92237e-15 -1.17118e-02
-1.42875e-14 6.48201e-16 -1.79464e-02
-2.03512e-14 4.97960e-15 -2.39985e-02
-1.29157e-14 7.24727e-15 -2.93875e-02
-3.38843e-15 -1.01793e-14 -3.38093e-02
-7.16345e-15 1.88167e-14 -3.71124e-02
-1.87730e-14 -9.04221e-15 -3.91340e-02
-1.91974e-14 2.10915e-14 -3.98218e-02
5.95115e-16 -4.81736e-15 -3.91211e-02
-5.78715e-15 5.22789e-15 -3.70776e-02
-2.02786e-15 9.70159e-15 -3.37868e-02
-3.14908e-15 -2.64440e-15 -2.93682e-02
-2.32769e-14 1.32748e-14 -2.40068e-02
2.48321e-14 -3.57991e-15 -1.79458e-02
2.21490e-14 2.63331e-15 -1.16867e-02
1.67442e-14 -4.06895e-16 -5.98166e-03
6.33672e-16 -8.96621e-15 -1.69315e-03
0.00000e+00 0.00000e+00 0.00000e+00
0.00000e+00 0.00000e+00 0.00000e+00
-9.51095e-15 -3.13651e-15 -1.39126e-03
-4.48541e-14 2.28006e-15 -4.93384e-03
-5.77802e-15 7.92043e-15 -9.61077e-03
-1.04912e-14 -3.60887e-15 -1.47040e-02
9.93908e-16 1.09259e-14 -1.96266e-02
-7.25249e-15 -2.32833e-14 -2.39885e-02
6.36531e-15 -1.14699e-14 -2.75906e-02
4.60073e-17 3.41057e-14 -3.02528e-02
3.89600e-15 4.62970e-15 -3.18859e-02
-1.05677e-14 7.28322e-15 -3.24259e-02
3.54415e-15 -1.29878e-14 -3.18722e-02
-2.00965e-14 4.24283e-15 -3.02223e-02
5.41518e-15 2.38218e-14 -2.75611e-02
-1.20323e-14 1.13467e-14 -2.39775e-02
1.48710e-14 -1.64989e-14 -1.96315e-02
-2.00291e-14 -1.50763e-15 -1.47072e-02
9.24338e-16 -7.23191e-15 -9.60106e-03
-9.58247e-15 -1.06680e-14 -4.92741e-03
-7.70772e-15 1.83313e-14 -1.39592e-03
0.00000e+00 0.00000e+00 0.00000e+00
0.00000e+00 0.00000e+00 0.00000e+00
2.87527e-15 -2.93152e-15 -1.05816e-03
1.02921e-14 5.13094e-15 -3.72963e-03
-8.73329e-15 -7.17407e-15 -7.24937e-03
1.67266e-14 1.11293e-15 -1.10428e-02
-7.50264e-15 8.15140e-15 -1.46927e-02
2.42227e-14 -2.04828e-14 -1.79465e-02
-1.22280e-14 7.51857e-15 -2.06089e-02
2.49677e-14 -2.32084e-14 -2.25821e-02
1.87283e-14 4.91729e-15 -2.37696e-02
8.75397e-15 -8.46488e-15 -2.41752e-02
9.17530e-15 -2.02762e-14 -2.37707e-02
-3.28235e-15 1.62054e-14 -2.25636e-02
1.28274e-14 -2.76169e-14 -2.05990e-02
1.69890e-14 -2.19429e-14 -1.79532e-02
-1.39397e-14 8.78945e-15 -1.47100e-02
3.03372e-14 -1.33885e-14 -1.10471e-02
-1.81538e-14 1.31559e-15 -7.24683e-03
-1.88407e-16 1.54851e-15 -3.73535e-03
-6.94664e-15 1.01337e-14 -1.06586e-03
0.00000e+00 0.00000e+00 0.00000e+00
0.00000e+00 0.00000e+00 0.00000e+00
2.29111e-14 -7.10040e-16 -7.01542e-04
-1.31157e-14 -1.35722e-14 -2.46415e-03
2.45784e-14 -8.45622e-15 -4.76320e-03
1.28234e-15 2.19706e-14 -7.23784e-03
1.79584e-14 -1.65010e-14 -9.60894e-03
-2.12221e-14 -1.61566e-14 -1.17095e-02
-1.74650e-14 5.97266e-15 -1.34364e-02
9.94271e-15 -1.21895e-14 -1.46930e-02
1.72054e-14 6.10808e-15 -1.54580e-02
7.84425e-15 -4.97466e-15 -1.57115e-02
2.78112e-15 -1.51682e-14 -1.54606e-02
1.88957e-14 1.30656e-14 -1.46949e-02
6.06654e-15 -5.08223e-15 -1.34358e-02
-1.19406e-14 -1.13996e-14 -1.17298e-02
1.38913e-14 -1.85467e-14 -9.62623e-03
-1.78155e-14 9.12175e-15 -7.24556e-03
2.45153e-14 6.60922e-15 -4.75380e-03
-9.25818e-15 7.35521e-15 -2.46780e-03
4.40786e-15 -1.12461e-14 -7.04308e-04
0.00000e+00 0.00000e+00 0.00000e+00
0.00000e+00 0.00000e+00 0.00000e+00
-2.08637e-14 1.39352e-14 -3.40684e-04
2.24272e-14 -1.00067e-14 -1.25680e-03
-4.94746e-15 1.64495e-14 -2.45774e-03
1.18902e-15 -1.45938e-14 -3.74179e-03
-1.13964e-14 3.51174e-14 -4.94845e-03
-1.34480e-14 -4.61573e-15 -6.00684e-03
-1.85356e-14 -1.13804e-14 -6.87376e-03
-1.97773e-14 7.35037e-15 -7.51175e-03
-1.17383e-14 6.05062e-15 -7.89529e-03
-2.11718e-15 1.17065e-14 -8.01750e-03
-7.77775e-15 8.66326e-15 -7.88900e-03
-1.48760e-15 2.74170e-14 -7.51298e-03
-1.42652e-14 1.64242e-14 -6.88035e-03
-2.04276e-15 -7.84304e-15 -6.02090e-03
-1.84147e-14 7.64700e-15 -4.96301e-03
5.65341e-15 1.41902e-14 -3.74288e-03
-1.25746e-14 -8.71113e-15 -2.45815e-03
1.19009e-14 1.74535e-14 -1.25024e-03
5.28442e-15 -1.06529e-14 -3.36950e-04
0.00000e+00 0.00000e+00 0.00000e+00
0.00000e+00 0.00000e+00 0.00000e+00
7.41212e-15 2.22456e-15 -8.82857e-05
-1.85548e-14 -1.26513e-14 -3.38468e-04
-2.38391e-15 -1.30669e-14 -7.02437e-04
5.46593e-16 3.93431e-14 -1.06585e-03
2.40672e-15 -1.09063e-14 -1.40650e-03
2.63337e-14 -1.68742e-14 -1.69910e-03
3.83621e-15 1.28581e-14 -1.94054e-03
-1.88383e-14 8.94805e-15 -2.11788e-03
-1.09194e-14 -2.06934e-14 -2.22848e-03
1.72416e-14 1.61361e-15 -2.25918e-03
-3.00268e-15 2.84789e-15 -2.22108e-03
-2.31809e-14 1.77882e-14 -2.11863e-03
1.86385e-14 -1.57265e-14 -1.94070e-03
-4.94709e-15 -8.93483e-15 -1.70549e-03
6.56592e-15 1.46110e-14 -1.40843e-03
5.56083e-15 -5.81034e-15 -1.07172e-03
8.26176e-16 1.64440e-14 -6.98309e-04
-9.56282e-15 -2.89324e-14 -3.28539e-04
7.61449e-16 1.78985e-14 -8.68894e-05
0.00000e+00 0.00000e+00 0.00000e+00
0.00000e+00 0.00000e+00 0.00000e+00
0.00000e+00 0.00000e+00 0.00000e+00
0.00000e+00 0.00000e+00 0.00000e+00
0.00000e+00 0.00000e+00 0.00000e+00
0.00000e+00 0.00000e+00 0.00000e+00
0.00000e+00 0.00000e+00 0.00000e+00
0.00000e+00 0.00000e+00 0.00000e+00
0.00000e+00 0.00000e+00 0.00000e+00
0.00000e+00 0.00000e+00 0.00000e+00
0.00000e+00 0.00000e+00 0.00000e+00
0.00000e+00 0.00000e+00 0.00000e+00
0.00000e+00 0.00000e+00 0.00000e+00
0.00000e+00 0.00000e+00 0.00000e+00
0.00000e+00 0.00000e+00 0.00000e+00
0.00000e+00 0.00000e+00 0.00000e+00
0.00000e+00 0.00000e+00 0.00000e+00
0.00000e+00 0.00000e+00 0.00000e+00
0.00000e+00 0.00000e+00 0.00000e+00
0.00000e+00 0.00000e+00 0.00000e+00
0.00000e+00 0.00000e+00 0.00000e+00
0.00000e+00 0.00000e+00 0.00000e+00
VECTORS angDisp float
0.00000e+00 0.00000e+00 0.00000e+00
0.00000e+00 0.00000e+00 0.00000e+00
0.00000e+00 0.00000e+00 0.00000e+00
0.00000e+00 0.00000e+00 0.00000e+00
0.00000e+00 0.00000e+00 0.00000e+00
0.00000e+00 0.00000e+00 0.00000e+00
0.00000e+00 0.00000e+00 0.00000e+00
0.00000e+00 0.00000e+00 0.00000e+00
0.00000e+00 0.00000e+00 0.00000e+00
0.00000e+00 0.00000e+00 0.00000e+00
0.00000e+00 0.00000e+00 0.00000e+00
0.00000e+00 0.00000e+00 0.00000e+00
0.00000e+00 0.00000e+00 0.00000e+00
0.00000e+00 0.00000e+00 0.00000e+00
0.00000e+00 0.00000e+00 0.00000e+00
0.00000e+00 0.00000e+00 0.00000e+00
0.00000e+00 0.00000e+00 0.00000e+00
0.00000e+00 0.00000e+00 0.00000e+00
0.00000e+00 0.00000e+00 0.00000e+00
0.00000e+00 0.00000e+00 0.00000e+00
0.00000e+00 0.00000e+00 0.00000e+00
0.00000e+00 0.00000e+00 0.00000e+00
3.41062e-03 -3.46470e-03 -7.29611e-11
1.37386e-02 -6.91244e-03 -6.27912e-11
2.78372e-02 -7.70686e-03 -5.24387e-11
4.19369e-02 -7.17402e-03 -4.47265e-11
5.51709e-02 -6.40076e-03 -3.83919e-11
6.69918e-02 -5.51626e-03 -3.25554e-11
7.65176e-02 -4.36713e-03 -2.84407e-11
8.39978e-02 -3.28602e-03 -2.51853e-11
8.83115e-02 -1.52471e-03 -2.44142e-11
8.99922e-02 1.87910e-05 -2.41134e-11
8.84270e-02 1.53213e-03 -2.37884e-11
8.39792e-02 3.03050e-03 -2.34217e-11
7.64086e-02 4.48751e-03 -2.20145e-11
6.67113e-02 5.69474e-03 -2.20433e-11
5.51035e-02 6.61857e-03 -2.19451e-11
4.13105e-02 7.42201e-03 -2.25042e-11
2.75969e-02 7.43169e-03 -2.53245e-11
1.38354e-02 6.76187e-03 -2.69081e-11
3.72455e-03 3.60289e-03 -3.03998e-11
0.00000e+00 0.00000e+00 0.00000e+00
0.00000e+00 0.00000e+00 0.00000e+00
7.19449e-03 -1.38292e-02 -7.13973e-11
2.26388e-02 -2.25990e-02 -6.47328e-11
4.22000e-02 -2.58107e-02 -5.49165e-11
6.46804e-02 -2.55186e-02 -4.54196e-11
8.57784e-02 -2.29365e-02 -3.84908e-11
1.04671e-01 -1.95324e-02 -3.14905e-11
1.19678e-01 -1.56227e-02 -2.62049e-11
1.31688e-01 -1.07401e-02 -2.18595e-11
1.38029e-01 -5.29628e-03 -2.01481e-11
1.40589e-01 4.22078e-05 -1.96409e-11
1.38108e-01 5.46513e-03 -1.93028e-11
1.30997e-01 1.07987e-02 -1.88974e-11
1.20112e-01 1.53939e-02 -1.85596e-11
1.04833e-01 1.95584e-02 -1.94543e-11
8.60524e-02 2.29166e-02 -2.01214e-11
6.50791e-02 2.53368e-02 -2.25866e-11
4.24016e-02 2.53588e-02 -2.42950e-11
2.20832e-02 2.28784e-02 -2.71194e-11
6.81139e-03 1.36844e-02 -3.27950e-11
0.00000e+00 0.00000e+00 0.00000e+00
0.00000e+00 0.00000e+00 0.00000e+00
7.53463e-03 -2.77381e-02 -6.79897e-11
2.58702e-02 -4.24292e-02 -6.18308e-11
4.96481e-02 -4.94899e-02 -5.51655e-11
7.57393e-02 -4.94119e-02 -4.58468e-11
1.01142e-01 -4.50493e-02 -3.70186e-11
1.23309e-01 -3.83613e-02 -3.01339e-11
1.41518e-01 -3.03372e-02 -2.34418e-11
1.54996e-01 -2.07413e-02 -1.82774e-11
1.63301e-01 -1.04009e-02 -1.56398e-11
1.66383e-01 -5.51821e-05 -1.49354e-11
1.63483e-01 1.05249e-02 -1.46299e-11
1.55228e-01 2.10511e-02 -1.43747e-11
1.41931e-01 2.97743e-02 -1.55884e-11
1.23347e-01 3.84915e-02 -1.69596e-11
1.01378e-01 4.54916e-02 -1.91800e-11
7.59511e-02 4.91739e-02 -2.12220e-11
4.97257e-02 5.00436e-02 -2.36488e-11
2.58331e-02 4.23818e-02 -2.88461e-11
7.39609e-03 2.72702e-02 -3.35672e-11
0.00000e+00 0.00000e+00 0.00000e+00
0.00000e+00 0.00000e+00 0.00000e+00
7.19529e-03 -4.18833e-02 -6.20642e-11
2.51116e-02 -6.49054e-02 -5.73414e-11
4.96184e-02 -7.54608e-02 -5.10617e-11
7.64414e-02 -7.64566e-02 -4.43327e-11
1.02452e-01 -6.97295e-02 -3.54473e-11
1.25847e-01 -5.90854e-02 -2.74733e-11
1.44684e-01 -4.63216e-02 -2.01823e-11
1.58792e-01 -3.22343e-02 -1.46888e-11
1.67469e-01 -1.61809e-02 -1.09747e-11
1.70635e-01 -2.47084e-04 -1.01265e-11
1.67636e-01 1.61114e-02 -9.92724e-12
1.59374e-01 3.20090e-02 -1.03143e-11
1.44708e-01 4.62777e-02 -1.23400e-11
1.25571e-01 5.97876e-02 -1.46049e-11
1.02226e-01 6.93364e-02 -1.73833e-11
7.65815e-02 7.67136e-02 -1.97594e-11
5.00450e-02 7.55716e-02 -2.46784e-11
2.58975e-02 6.51609e-02 -2.89931e-11
7.27833e-03 4.18722e-02 -3.21470e-11
0.00000e+00 0.00000e+00 0.00000e+00
0.00000e+00 0.00000e+00 0.00000e+00
6.66042e-03 -5.53523e-02 -5.47888e-11
2.33342e-02 -8.58641e-02 -5.03688e-11
4.51463e-02 -1.00846e-01 -4.56612e-11
6.97580e-02 -1.02390e-01 -3.93027e-11
9.41766e-02 -9.46254e-02 -3.25342e-11
1.15944e-01 -8.00591e-02 -2.40500e-11
1.34495e-01 -6.26530e-02 -1.69540e-11
1.48050e-01 -4.38502e-02 -1.06001e-11
1.56312e-01 -2.19459e-02 -6.37447e-12
1.59185e-01 -2.33957e-04 -5.48046e-12
1.56090e-01 2.19773e-02 -5.45402e-12
1.48381e-01 4.29755e-02 -6.66630e-12
1.33974e-01 6.36953e-02 -9.38049e-12
1.15776e-01 8.01464e-02 -1.25649e-11
9.43701e-02 9.38717e-02 -1.51575e-11
7.00903e-02 1.01643e-01 -2.00229e-11
4.55628e-02 1.01421e-01 -2.41876e-11
2.33669e-02 8.64930e-02 -2.70931e-11
6.66582e-03 5.50295e-02 -2.92951e-11
0.00000e+00 0.00000e+00 0.00000e+00
0.00000e+00 0.00000e+00 0.00000e+00
5.47206e-03 -6.71884e-02 -4.73342e-11
1.97690e-02 -1.04724e-01 -4.29992e-11
3.86445e-02 -1.23311e-01 -3.82426e-11
5.96530e-02 -1.25558e-01 -3.30049e-11
8.03358e-02 -1.15858e-01 -2.70825e-11
9.90879e-02 -9.95082e-02 -2.05523e-11
1.15026e-01 -7.78056e-02 -1.30066e-11
1.27079e-01 -5.39173e-02 -6.75383e-12
1.34552e-01 -2.73174e-02 -2.47325e-12
1.37145e-01 -2.81002e-05 -1.40056e-12
1.34419e-01 2.72947e-02 -1.48354e-12
1.26721e-01 5.39408e-02 -3.71950e-12
1.14637e-01 7.89114e-02 -6.83139e-12
9.92106e-02 9.89570e-02 -9.79342e-12
8.06080e-02 1.14970e-01 -1.45123e-11
5.93777e-02 1.25429e-01 -1.88020e-11
3.78776e-02 1.23870e-01 -2.19742e-11
1.95971e-02 1.04807e-01 -2.39132e-11
5.44555e-03 6.72091e-02 -2.49232e-11
0.00000e+00 0.00000e+00 0.00000e+00
0.00000e+00 0.00000e+00 0.00000e+00
4.26812e-03 -7.67331e-02 -4.09727e-11
1.52420e-02 -1.20075e-01 -3.58368e-11
2.98153e-02 -1.41733e-01 -3.11452e-11
4.66711e-02 -1.44791e-01 -2.60662e-11
6.35499e-02 -1.34203e-01 -2.07454e-11
7.82168e-02 -1.14187e-01 -1.54870e-11
9.01341e-02 -9.05723e-02 -9.86294e-12
9.98505e-02 -6.29684e-02 -3.99331e-12
1.05838e-01 -3.24466e-02 2.40978e-13
1.08317e-01 1.41312e-04 1.60142e-12
1.06106e-01 3.18117e-02 1.19408e-12
9.97728e-02 6.31199e-02 -1.38275e-12
9.02313e-02 9.07443e-02 -4.26313e-12
7.81517e-02 1.14708e-01 -8.78672e-12
6.26182e-02 1.33829e-01 -1.28966e-11
4.58161e-02 1.44501e-01 -1.60722e-11
2.95480e-02 1.42207e-01 -1.83794e-11
1.53885e-02 1.20070e-01 -2.03222e-11
4.32432e-03 7.67571e-02 -2.11640e-11
0.00000e+00 0.00000e+00 0.00000e+00
0.00000e+00 0.00000e+00 0.00000e+00
3.00013e-03 -8.39360e-02 -3.54793e-11
1.05680e-02 -1.31311e-01 -3.07631e-11
2.04934e-02 -1.55445e-01 -2.54874e-11
3.18248e-02 -1.59083e-01 -2.01031e-11
4.30924e-02 -1.47605e-01 -1.47690e-11
5.38696e-02 -1.27053e-01 -1.00750e-11
6.29548e-02 -9.91402e-02 -5.94304e-12
6.89309e-02 -6.93852e-02 -2.35390e-12
7.29662e-02 -3.61375e-02 1.53561e-12
7.46784e-02 2.03417e-04 3.00685e-12
7.23789e-02 3.56815e-02 2.24202e-12
6.88347e-02 6.94852e-02 1.12059e-13
6.25091e-02 1.00245e-01 -3.65026e-12
5.34948e-02 1.26960e-01 -7.11065e-12
4.33018e-02 1.47350e-01 -1.01263e-11
3.18163e-02 1.58491e-01 -1.25584e-11
2.05321e-02 1.55384e-01 -1.43775e-11
1.05830e-02 1.31152e-01 -1.56519e-11
2.85460e-03 8.38954e-02 -1.63782e-11
0.00000e+00 0.00000e+00 0.00000e+00
0.00000e+00 0.00000e+00 0.00000e+00
1.41045e-03 -8.80701e-02 -3.10461e-11
5.30353e-03 -1.38223e-01 -2.59616e-11
1.02669e-02 -1.63798e-01 -2.07488e-11
1.61204e-02 -1.67712e-01 -1.55159e-11
2.18492e-02 -1.56133e-01 -1.05341e-11
2.70944e-02 -1.34335e-01 -6.25320e-12
3.20460e-02 -1.05885e-01 -2.70065e-12
3.57545e-02 -7.33093e-02 -4.29121e-13
3.77615e-02 -3.78295e-02 7.57502e-13
3.68552e-02 2.63987e-04 2.47298e-12
3.77928e-02 3.78148e-02 1.82532e-12
3.60023e-02 7.28126e-02 -4.85408e-13
3.27055e-02 1.06096e-01 -2.76593e-12
2.76848e-02 1.34525e-01 -4.84191e-12
2.18315e-02 1.56256e-01 -7.10496e-12
1.56739e-02 1.67667e-01 -9.20243e-12
1.00380e-02 1.63796e-01 -1.10297e-11
5.33261e-03 1.37832e-01 -1.24758e-11
1.50963e-03 8.82869e-02 -1.32469e-11
0.00000e+00 0.00000e+00 0.00000e+00
0.00000e+00 0.00000e+00 0.00000e+00
-8.69242e-05 -8.95991e-02 -2.78348e-11
1.03549e-04 -1.40647e-01 -2.26359e-11
1.46482e-04 -1.66665e-01 -1.73632e-11
2.33193e-04 -1.70638e-01 -1.22004e-11
7.64827e-05 -1.58848e-01 -7.44538e-12
-1.87852e-04 -1.36662e-01 -3.46620e-12
-2.70598e-04 -1.07986e-01 -6.11422e-13
-1.15543e-05 -7.50626e-02 8.95896e-13
8.04657e-04 -3.77577e-02 1.03509e-12
9.88328e-05 7.26178e-04 0.00000e+00
6.30691e-04 3.69454e-02 -6.17772e-13
-4.35305e-05 7.47728e-02 -1.72325e-12
-3.38204e-04 1.08641e-01 -3.22100e-12
-1.94647e-04 1.37238e-01 -4.96465e-12
-1.17942e-04 1.58887e-01 -6.78072e-12
-1.08624e-04 1.70414e-01 -8.48777e-12
-1.04638e-04 1.66355e-01 -9.91016e-12
3.59344e-05 1.39993e-01 -1.08865e-11
-4.76045e-05 8.99325e-02 -1.12754e-11
0.00000e+00 0.00000e+00 0.00000e+00
0.00000e+00 0.00000e+00 0.00000e+00
-1.50174e-03 -8.80326e-02 -2.84092e-11
-5.21403e-03 -1.38340e-01 -2.29473e-11
-1.04046e-02 -1.63967e-01 -1.74048e-11
-1.61880e-02 -1.67713e-01 -1.21034e-11
-2.20290e-02 -1.55893e-01 -7.36428e-12
-2.73693e-02 -1.34003e-01 -3.52200e-12
-3.20432e-02 -1.05887e-01 -8.95220e-13
-3.57618e-02 -7.41320e-02 7.08200e-13
-3.79565e-02 -3.74314e-02 1.08367e-12
-3.70638e-02 -1.96834e-05 -1.72402e-13
-3.73944e-02 3.79616e-02 -3.37667e-12
-3.59158e-02 7.32098e-02 -4.25840e-12
-3.21804e-02 1.06093e-01 -5.43223e-12
-2.71310e-02 1.34573e-01 -6.97771e-12
-2.13445e-02 1.56171e-01 -8.36522e-12
-1.55917e-02 1.67697e-01 -9.53453e-12
-1.00803e-02 1.63660e-01 -1.04674e-11
-5.10062e-03 1.37607e-01 -1.10856e-11
-1.42875e-03 8.83740e-02 -1.12337e-11
0.00000e+00 0.00000e+00 0.00000e+00
0.00000e+00 0.00000e+00 0.00000e+00
-2.85847e-03 -8.40438e-02 -3.12878e-11
-1.00976e-02 -1.31427e-01 -2.58104e-11
-2.01961e-02 -1.55430e-01 -2.02090e-11
-3.18556e-02 -1.58647e-01 -1.47381e-11
-4.34109e-02 -1.47262e-01 -9.53796e-12
-5.37356e-02 -1.26785e-01 -5.23238e-12
-6.24689e-02 -1.00013e-01 -2.17951e-12
-6.97346e-02 -6.90975e-02 -2.72565e-13
-7.38531e-02 -3.59465e-02 5.14828e-13
-7.54104e-02 -4.89920e-04 -4.82290e-13
-7.38924e-02 3.61463e-02 -3.32309e-12
-6.95235e-02 6.95111e-02 -6.81716e-12
-6.27370e-02 9.97368e-02 -7.35155e-12
-5.36767e-02 1.26619e-01 -7.89681e-12
-4.31742e-02 1.47595e-01 -8.55675e-12
-3.19524e-02 1.59177e-01 -9.54776e-12
-2.06128e-02 1.55542e-01 -1.03732e-11
-1.05117e-02 1.30822e-01 -1.08772e-11
-2.92554e-03 8.41567e-02 -1.07670e-11
0.00000e+00 0.00000e+00 0.00000e+00
0.00000e+00 0.00000e+00 0.00000e+00
-4.35593e-03 -7.70168e-02 -3.63310e-11
-1.57019e-02 -1.20077e-01 -3.02373e-11
-3.05915e-02 -1.41742e-01 -2.37899e-11
-4.68264e-02 -1.44771e-01 -1.77500e-11
-6.33319e-02 -1.33813e-01 -1.22884e-11
-7.76279e-02 -1.15240e-01 -8.04648e-12
-9.05461e-02 -8.99238e-02 -4.64321e-12
-9.97851e-02 -6.26065e-02 -1.91333e-12
-1.05897e-01 -3.22539e-02 -3.29810e-13
-1.08566e-01 -2.36604e-04 -9.33390e-13
-1.06224e-01 3.25130e-02 -3.10131e-12
-1.00572e-01 6.25916e-02 -6.52254e-12
-9.06866e-02 9.01043e-02 -9.97596e-12
-7.80515e-02 1.14596e-01 -1.01863e-11
-6.28924e-02 1.34228e-01 -9.80866e-12
-4.67003e-02 1.45055e-01 -9.73944e-12
-3.04286e-02 1.41748e-01 -9.60632e-12
-1.58785e-02 1.19205e-01 -9.11335e-12
-4.64805e-03 7.69759e-02 -9.18637e-12
0.00000e+00 0.00000e+00 0.00000e+00
0.00000e+00 0.00000e+00 0.00000e+00
-5.72712e-03 -6.69167e-02 -4.13615e-11
-1.99758e-02 -1.04298e-01 -3.49724e-11
-3.87838e-02 -1.23514e-01 -2.83766e-11
-5.97568e-02 -1.25427e-01 -2.23052e-11
-7.99851e-02 -1.16155e-01 -1.69265e-11
-9.95064e-02 -9.87736e-02 -1.22837e-11
-1.14625e-01 -7.80042e-02 -7.50793e-12
-1.26499e-01 -5.38411e-02 -3.87763e-12
-1.33783e-01 -2.70878e-02 -1.64774e-12
-1.36658e-01 -7.52808e-06 -1.53298e-12
-1.33927e-01 2.80975e-02 -2.61636e-12
-1.26673e-01 5.39299e-02 -5.78721e-12
-1.14952e-01 7.76623e-02 -9.19262e-12
-9.96195e-02 9.84155e-02 -1.24132e-11
-8.06167e-02 1.15837e-01 -1.20298e-11
-5.92681e-02 1.26388e-01 -1.06678e-11
-3.84905e-02 1.23562e-01 -9.74082e-12
-1.99065e-02 1.04099e-01 -8.87986e-12
-5.45275e-03 6.69335e-02 -7.90155e-12
0.00000e+00 0.00000e+00 0.00000e+00
0.00000e+00 0.00000e+00 0.00000e+00
-6.64959e-03 -5.52152e-02 -4.77655e-11
-2.30718e-02 -8.59768e-02 -4.13098e-11
-4.50536e-02 -1.00947e-01 -3.48290e-11
-6.98217e-02 -1.02537e-01 -2.86854e-11
-9.47283e-02 -9.41687e-02 -2.30810e-11
-1.16224e-01 -8.06323e-02 -1.68208e-11
-1.33855e-01 -6.31550e-02 -1.08976e-11
-1.47407e-01 -4.34311e-02 -6.26367e-12
-1.56006e-01 -2.17225e-02 -3.42398e-12
-1.58762e-01 -8.93600e-05 -2.29439e-12
-1.55643e-01 2.23307e-02 -2.12166e-12
-1.47418e-01 4.35279e-02 -4.79604e-12
-1.33558e-01 6.28416e-02 -7.49765e-12
-1.15601e-01 8.01408e-02 -1.09939e-11
-9.47298e-02 9.39125e-02 -1.35999e-11
-7.00297e-02 1.02542e-01 -1.25368e-11
-4.46993e-02 1.01525e-01 -1.04109e-11
-2.28278e-02 8.54711e-02 -8.49049e-12
-6.36608e-03 5.51873e-02 -6.72682e-12
0.00000e+00 0.00000e+00 0.00000e+00
0.00000e+00 0.00000e+00 0.00000e+00
-7.12966e-03 -4.18912e-02 -5.57199e-11
-2.50001e-02 -6.46839e-02 -4.92820e-11
-4.94462e-02 -7.56141e-02 -4.27629e-11
-7.65723e-02 -7.60467e-02 -3.65570e-11
-1.02541e-01 -7.01394e-02 -2.91003e-11
-1.25279e-01 -5.96332e-02 -2.11107e-11
-1.45033e-01 -4.69988e-02 -1.44738e-11
-1.59096e-01 -3.16292e-02 -9.04696e-12
-1.68127e-01 -1.60627e-02 -5.44575e-12
-1.70973e-01 -1.29563e-04 -3.22021e-12
-1.67855e-01 1.60452e-02 -1.89826e-12
-1.58748e-01 3.21277e-02 -3.64173e-12
-1.44408e-01 4.63502e-02 -5.67034e-12
-1.25375e-01 5.97190e-02 -7.95874e-12
-1.01977e-01 7.01524e-02 -1.12261e-11
-7.64571e-02 7.63248e-02 -1.30246e-11
-4.93246e-02 7.53954e-02 -1.13036e-11
-2.50533e-02 6.45016e-02 -8.32071e-12
-7.17919e-03 4.20075e-02 -5.44319e-12
0.00000e+00 0.00000e+00 0.00000e+00
0.00000e+00 0.00000e+00 0.00000e+00
-7.61578e-03 -2.72469e-02 -6.47341e-11
-2.57408e-02 -4.28078e-02 -5.84092e-11
-4.96352e-02 -4.91337e-02 -5.19329e-11
-7.53716e-02 -4.93380e-02 -4.37688e-11
-1.00402e-01 -4.53101e-02 -3.39949e-11
-1.23408e-01 -3.87268e-02 -2.57199e-11
-1.41811e-01 -3.03671e-02 -1.81316e-11
-1.55678e-01 -2.01875e-02 -1.19347e-11
-1.63990e-01 -1.02755e-02 -7.62068e-12
-1.66903e-01 1.28772e-04 -4.27395e-12
-1.64142e-01 9.99521e-03 -1.76645e-12
-1.55416e-01 2.06323e-02 -2.13558e-12
-1.41735e-01 2.97409e-02 -3.40044e-12
-1.23069e-01 3.84468e-02 -4.68134e-12
-1.00761e-01 4.54852e-02 -6.64426e-12
-7.53369e-02 4.97066e-02 -9.25857e-12
-4.96136e-02 4.94053e-02 -1.03715e-11
-2.58515e-02 4.21985e-02 -8.15027e-12
-7.74887e-03 2.77303e-02 -4.51907e-12
0.00000e+00 0.00000e+00 0.00000e+00
0.00000e+00 0.00000e+00 0.00000e+00
-7.08223e-03 -1.42817e-02 -7.46686e-11
-2.26900e-02 -2.25225e-02 -6.82764e-11
-4.23468e-02 -2.56843e-02 -5.98829e-11
-6.44757e-02 -2.56061e-02 -4.91432e-11
-8.56165e-02 -2.28674e-02 -3.90971e-11
-1.04474e-01 -1.95006e-02 -3.00330e-11
-1.19783e-01 -1.52203e-02 -2.18575e-11
-1.31231e-01 -1.00897e-02 -1.50207e-11
-1.37730e-01 -5.23230e-03 -9.83191e-12
-1.40243e-01 3.75776e-04 -5.35770e-12
-1.37942e-01 4.85150e-03 -1.66704e-12
-1.31343e-01 1.04055e-02 -2.81487e-13
-1.19935e-01 1.49626e-02 -7.39773e-13
-1.04564e-01 1.93250e-02 -1.13523e-12
-8.58799e-02 2.31947e-02 -1.53338e-12
-6.43548e-02 2.55898e-02 -3.34383e-12
-4.25955e-02 2.59736e-02 -5.00992e-12
-2.29223e-02 2.26704e-02 -5.63239e-12
-7.15495e-03 1.39151e-02 -3.16816e-12
0.00000e+00 0.00000e+00 0.00000e+00
0.00000e+00 0.00000e+00 0.00000e+00
-3.36772e-03 -3.18483e-03 -8.46988e-11
-1.38450e-02 -6.86065e-03 -7.64674e-11
-2.76320e-02 -7.93141e-03 -6.56918e-11
-4.20261e-02 -7.29894e-03 -5.40560e-11
-5.57472e-02 -6.57968e-03 -4.37128e-11
-6.69946e-02 -5.47324e-03 -3.38382e-11
-7.69218e-02 -4.44512e-03 -2.52813e-11
-8.36757e-02 -3.04998e-03 -1.79572e-11
-8.80773e-02 -1.62819e-03 -1.19077e-11
-8.95257e-02 3.45355e-04 -6.31204e-12
-8.76071e-02 1.16429e-03 -1.46835e-12
-8.39773e-02 2.91662e-03 1.76735e-12
-7.67889e-02 4.40774e-03 2.09371e-12
-6.72419e-02 5.46392e-03 2.86929e-12
-5.58910e-02 6.59996e-03 3.49902e-12
-4.22602e-02 7.40326e-03 3.51033e-12
-2.72171e-02 7.91430e-03 1.84780e-12
-1.37982e-02 6.86683e-03 1.23406e-12
-3.18354e-03 3.11420e-03 9.04936e-13
0.00000e+00 0.00000e+00 0.00000e+00
0.00000e+00 0.00000e+00 0.00000e+00
0.00000e+00 0.00000e+00 0.00000e+00
0.00000e+00 0.00000e+00 0.00000e+00
0.00000e+00 0.00000e+00 0.00000e+00
0.00000e+00 0.00000e+00 0.00000e+00
0.00000e+00 0.00000e+00 0.00000e+00
0.00000e+00 0.00000e+00 0.00000e+00
0.00000e+00 0.00000e+00 0.00000e+00
0.00000e+00 0.00000e+00 0.00000e+00
0.00000e+00 0.00000e+00 0.00000e+00
0.00000e+00 0.00000e+00 0.00000e+00
0.00000e+00 0.00000e+00 0.00000e+00
0.00000e+00 0.00000e+00 0.00000e+00
0.00000e+00 0.00000e+00 0.00000e+00
0.00000e+00 0.00000e+00 0.00000e+00
0.00000e+00 0.00000e+00 0.00000e+00
0.00000e+00 0.00000e+00 0.00000e+00
0.00000e+00 0.00000e+00 0.00000e+00
0.00000e+00 0.00000e+00 0.00000e+00
0.00000e+00 0.00000e+00 0.00000e+00
0.00000e+00 0.00000e+00 0.00000e+00
VECTORS Fiber float
0.00000e+00 0.00000e+00 1.00000e+00
0.00000e+00 0.00000e+00 1.00000e+00
0.00000e+00 0.00000e+00 1.00000e+00
0.00000e+00 0.00000e+00 1.00000e+00
0.00000e+00 0.00000e+00 1.00000e+00
0.00000e+00 0.00000e+00 1.00000e+00
0.00000e+00 0.00000e+00 1.00000e+00
0.00000e+00 0.00000e+00 1.00000e+00
0.00000e+00 0.00000e+00 1.00000e+00
0.00000e+00 0.00000e+00 1.00000e+00
0.00000e+00 0.00000e+00 1.00000e+00
0.00000e+00 0.00000e+00 1.00000e+00
0.00000e+00 0.00000e+00 1.00000e+00
0.00000e+00 0.00000e+00 1.00000e+00
0.00000e+00 0.00000e+00 1.00000e+00
0.00000e+00 0.00000e+00 1.00000e+00
0.00000e+00 0.00000e+00 1.00000e+00
0.00000e+00 0.00000e+00 1.00000e+00
0.00000e+00 0.00000e+00 1.00000e+00
0.00000e+00 0.00000e+00 1.00000e+00
0.00000e+00 0.00000e+00 1.00000e+00
0.00000e+00 0.00000e+00 1.00000e+00
8.65143e-01 4.66894e-01 -1.68043e-01
-4.03457e-01 -8.30571e-01 -3.94991e-01
1.59862e-01 9.34375e-01 -3.37895e-01
-2.29438e-01 -3.66934e-01 -9.03998e-01
-1.65279e-01 4.10663e-02 -9.85825e-01
-1.98916e-01 -1.03029e-01 -9.75769e-01
-1.23107e-01 6.16921e-01 -7.79626e-01
-7.09093e-02 3.61342e-01 9.30103e-01
2.46529e-02 9.87345e-01 1.55476e-01
9.25360e-02 -7.98235e-01 5.94270e-01
2.07458e-01 -9.44830e-01 2.52786e-01
3.23006e-01 -6.01582e-01 -7.31383e-01
4.14570e-01 -7.34851e-01 5.39460e-01
5.03481e-01 -5.76111e-01 -6.45575e-01
5.28112e-01 -3.68813e-01 7.65436e-01
1.98591e-01 6.86185e-01 -7.03235e-01
2.37265e-02 9.67063e-01 -2.78448e-01
2.39410e-01 8.06971e-02 9.72012e-01
6.20355e-01 -6.50595e-01 4.32417e-01
0.00000e+00 0.00000e+00 1.00000e+00
0.00000e+00 0.00000e+00 1.00000e+00
-8.84373e-01 -4.02352e-01 2.53820e-01
-6.34875e-01 -3.22177e-01 7.10838e-01
-4.83672e-01 -3.75335e-01 -7.90302e-01
1.47218e-01 8.20671e-01 -5.54657e-01
-2.53613e-01 -9.96187e-02 -9.62371e-01
-3.16463e-01 -6.42691e-01 -6.89421e-01
-4.86746e-02 9.37380e-01 3.24920e-01
-3.39334e-02 7.75500e-01 -6.23276e-01
-5.22237e-02 -5.31757e-01 8.42240e-01
5.77122e-02 -6.58978e-01 7.47757e-01
1.28835e-01 3.80018e-01 9.13283e-01
2.58021e-01 -3.25361e-01 -9.04561e-01
4.22003e-01 -8.92938e-01 1.04948e-01
2.92735e-01 2.97332e-01 9.02339e-01
9.80736e-02 7.27370e-01 6.79528e-01
4.49977e-01 -5.32426e-01 -7.18813e-01
-2.28528e-01 8.18575e-01 5.25539e-01
-1.30575e-01 2.67988e-01 -9.61197e-01
-9.53305e-01 2.93276e-01 1.09857e-01
0.00000e+00 0.00000e+00 1.00000e+00
0.00000e+00 0.00000e+00 1.00000e+00
7.26183e-01 3.20677e-01 -6.18583e-01
6.90232e-01 7.20021e-01 6.46703e-02
-7.67323e-01 -3.40494e-01 -5.45596e-01
-5.82131e-01 -4.40224e-01 -6.83258e-01
-5.49875e-01 -7.81886e-01 -2.70566e-01
-2.18661e-01 -4.13163e-02 9.69960e-01
-1.49003e-01 1.40260e-01 -9.79913e-01
-2.08183e-01 -6.75448e-01 7.03230e-01
1.05927e-02 4.85879e-01 8.73343e-01
5.05510e-02 -4.32586e-02 -9.97873e-01
1.00630e-01 6.16690e-01 7.80183e-01
2.39125e-01 -2.84424e-01 9.25695e-01
3.92237e-01 -6.08044e-01 -6.92167e-01
3.93997e-01 -4.33755e-01 -8.04492e-01
1.51554e-01 6.64693e-02 -9.79588e-01
3.33937e-01 -2.44234e-01 -9.10176e-01
5.96363e-01 -5.03561e-01 6.26928e-01
-6.06173e-01 3.25348e-01 7.24895e-01
-6.36807e-01 1.63055e-01 -7.62687e-01
0.00000e+00 0.00000e+00 1.00000e+00
0.00000e+00 0.00000e+00 1.00000e+00
-4.47505e-01 -2.73130e-02 -8.96248e-01
4.54067e-02 2.02044e-01 9.79722e-01
1.48607e-02 2.95716e-01 -9.55003e-01
2.61061e-01 5.82436e-01 7.61448e-01
3.56928e-01 8.71776e-01 3.18203e-01
-1.98357e-01 -8.62441e-03 -9.79016e-01
-7.62065e-02 3.02371e-01 -9.45742e-01
6.50020e-02 9.51899e-01 -2.98533e-01
9.85302e-02 9.69585e-01 2.27350e-01
1.00146e-01 -5.49602e-01 8.30256e-01
1.07271e-01 7.83220e-01 6.13758e-01
1.29015e-01 4.49227e-01 8.84000e-01
2.46937e-01 3.51533e-02 9.64162e-01
6.31568e-02 2.35900e-01 9.68735e-01
5.07782e-01 -5.71273e-01 6.36055e-01
-2.61266e-01 2.84658e-01 9.15152e-01
-5.31174e-01 2.95306e-01 -7.93904e-01
9.47361e-01 -3.22960e-01 2.65221e-02
-8.29691e-01 2.07004e-01 5.22786e-01
0.00000e+00 0.00000e+00 1.00000e+00
0.00000e+00 0.00000e+00 1.00000e+00
6.83090e-01 -8.03021e-02 7.26355e-01
-7.89927e-01 -1.97467e-01 5.80782e-01
-5.51098e-01 -1.30460e-01 -8.16080e-01
2.95509e-01 3.55603e-01 -8.80286e-01
4.15330e-01 5.97202e-01 -6.81409e-01
-5.80038e-01 -6.22822e-01 5.25662e-01
-2.38210e-01 -1.78296e-01 9.48867e-01
1.29395e-01 8.41624e-01 -5.19096e-01
1.53670e-01 7.06021e-01 -6.89142e-01
2.02507e-01 -7.43596e-01 -6.35927e-01
2.67537e-01 1.30697e-01 9.52954e-01
4.89437e-01 -6.18678e-01 -6.09913e-01
1.69785e-01 1.93927e-01 9.60431e-01
4.57859e-01 -4.61844e-01 7.60129e-01
7.02691e-01 -7.02209e-01 7.88015e-02
7.78428e-01 -6.16891e-01 4.74812e-02
-1.67690e-01 6.33518e-02 9.77400e-01
1.27098e-02 3.57726e-02 -9.99478e-01
3.09963e-01 1.39398e-03 -9.51092e-01
0.00000e+00 0.00000e+00 1.00000e+00
0.00000e+00 0.00000e+00 1.00000e+00
-2.99670e-01 -2.20828e-01 9.29709e-01
9.62466e-01 1.29214e-01 2.13134e-01
6.60085e-01 1.76378e-01 -7.23792e-01
-6.22659e-01 -2.72472e-01 -7.31957e-01
6.87667e-01 5.05408e-01 5.22323e-01
-4.66340e-01 -4.09782e-01 -7.84394e-01
3.96873e-01 6.91334e-01 -6.02797e-01
3.18111e-01 8.79197e-01 -3.52832e-01
2.20584e-01 2.73731e-01 -9.34975e-01
4.20672e-01 -8.44893e-01 -3.26047e-01
5.17970e-01 -2.43709e-01 -8.18158e-01
3.26181e-01 2.20503e-01 9.17731e-01
6.82488e-01 -6.57178e-01 3.17639e-01
-6.08806e-01 6.59158e-01 -4.41117e-01
-8.47868e-01 5.28672e-01 -4.28406e-02
5.57151e-01 -3.10114e-01 -7.69203e-01
7.06173e-01 -2.18167e-01 -6.66718e-01
-9.56818e-01 1.99598e-01 1.81612e-01
-8.10463e-01 8.26727e-02 -5.81441e-01
0.00000e+00 0.00000e+00 1.00000e+00
0.00000e+00 0.00000e+00 1.00000e+00
9.63151e-01 -1.29572e-01 -2.43268e-01
9.45525e-01 7.76625e-02 -2.94194e-01
4.34643e-01 7.92791e-02 8.98267e-01
2.84787e-02 -1.97128e-02 -9.95266e-01
9.10564e-01 3.44551e-01 2.01687e-01
2.77465e-01 8.56501e-02 -9.56402e-01
7.27539e-01 6.50094e-01 1.95177e-01
3.66779e-01 4.59732e-01 8.00056e-01
5.85326e-01 6.98567e-01 3.94053e-01
7.39326e-01 5.10336e-01 4.23815e-01
4.50718e-01 8.22764e-01 -3.25515e-01
4.28005e-01 1.97875e-02 8.95779e-01
-3.27239e-01 4.44932e-01 -8.27556e-01
9.62221e-02 -1.24116e-01 -9.86789e-01
8.26127e-01 -4.51993e-01 3.19000e-01
4.95051e-01 -1.84039e-01 -8.44051e-01
-7.97154e-01 1.54792e-01 -5.85894e-01
-3.96444e-01 3.82566e-02 9.09870e-01
9.67310e-01 -8.99287e-02 2.44435e-01
0.00000e+00 0.00000e+00 1.00000e+00
0.00000e+00 0.00000e+00 1.00000e+00
8.92731e-01 -8.20528e-02 -4.43999e-01
-4.16928e-01 -5.64874e-02 9.02163e-01
7.02192e-01 1.07818e-01 -7.00384e-01
-1.26042e-01 -4.32732e-02 -9.90652e-01
9.78366e-01 1.87463e-01 -4.07114e-02
-7.09765e-01 -4.83423e-01 -5.09917e-01
9.29465e-01 3.43596e-01 -6.42482e-02
-5.59695e-01 -8.23423e-01 6.44515e-02
6.76202e-01 -2.08489e-01 -7.08367e-01
9.84244e-01 1.59969e-01 -9.28644e-02
4.19079e-01 8.98908e-01 -1.37887e-01
-4.96280e-01 6.69579e-01 -5.48517e-01
7.73817e-01 -6.14822e-01 9.62326e-02
-7.91332e-01 2.06983e-01 -5.72811e-01
5.75817e-01 -2.30949e-01 7.80327e-01
-7.16123e-02 -8.09724e-03 9.96872e-01
-7.67619e-01 8.24047e-02 6.31777e-01
-9.93169e-01 6.40223e-02 1.92109e-02
7.11705e-01 -6.75089e-02 6.99858e-01
0.00000e+00 0.00000e+00 1.00000e+00
0.00000e+00 0.00000e+00 1.00000e+00
-9.96927e-01 -4.55690e-02 -6.17015e-02
-9.96370e-01 3.30298e-02 -4.13144e-02
8.59079e-01 1.31625e-01 4.93835e-01
2.38055e-01 7.06416e-02 -9.69459e-01
-1.80079e-01 -8.50804e-02 -9.78120e-01
-6.51820e-01 -3.33094e-01 6.79386e-01
7.03459e-01 -8.65125e-02 6.95300e-01
1.42927e-01 -1.64889e-01 -9.77055e-01
7.04949e-01 -4.58630e-01 5.41253e-01
8.81412e-01 -4.29689e-01 2.23306e-01
-5.01014e-01 -8.44840e-01 -1.87770e-01
-7.41643e-01 -6.60481e-01 -1.25501e-01
-5.74970e-01 -1.54057e-01 7.94908e-01
-8.99475e-01 8.73706e-02 4.25176e-01
9.81848e-01 -1.65254e-01 7.09963e-02
-7.24407e-01 4.66477e-02 6.88901e-01
-9.71227e-01 4.98031e-02 -2.30663e-01
5.04500e-01 -4.60291e-02 8.59243e-01
-9.92943e-01 -3.48424e-02 1.12051e-01
0.00000e+00 0.00000e+00 1.00000e+00
0.00000e+00 0.00000e+00 1.00000e+00
1.04788e-01 4.77679e-02 -9.92951e-01
1.96286e-01 1.25939e-01 9.70924e-01
-8.44660e-01 1.40242e-01 5.17059e-01
-6.67354e-01 1.28868e-01 -7.34513e-01
-5.91910e-01 5.85954e-02 -8.02302e-01
1.78474e-01 -6.30926e-02 9.80356e-01
-9.66174e-01 -1.96696e-01 -1.20576e-01
-8.14942e-01 -4.38473e-01 -3.82535e-01
6.61787e-01 -5.94786e-01 -4.67142e-01
-1.89103e-01 7.95638e-01 5.67025e-01
1.33378e-01 9.24718e-01 3.71257e-01
-8.84038e-01 -3.32116e-01 3.33397e-01
-1.71404e-01 -2.27776e-01 9.51263e-01
-7.58453e-01 -2.95783e-02 -6.48949e-01
4.40035e-01 -1.10687e-02 8.96344e-01
2.00255e-01 -1.50821e-02 9.80462e-01
1.68257e-01 -1.87028e-02 9.85528e-01
-8.01742e-02 -3.74593e-02 -9.94313e-01
8.81981e-01 -5.99001e-02 4.65915e-01
0.00000e+00 0.00000e+00 1.00000e+00
0.00000e+00 0.00000e+00 1.00000e+00
-8.74241e-01 7.70251e-02 -4.79144e-01
-8.77902e-01 1.91564e-01 -4.33760e-01
-1.85289e-01 2.01036e-01 9.61585e-01
8.21020e-01 1.07671e-01 5.61921e-01
3.95633e-01 1.20520e-01 -9.08312e-01
9.84237e-01 -7.62396e-02 1.49650e-01
6.44892e-01 -1.80679e-01 -7.33017e-01
-1.21207e-01 -3.75540e-01 -9.19763e-01
-7.33494e-01 -1.62628e-01 -6.60167e-01
4.70111e-01 7.24440e-01 5.14578e-01
5.93696e-01 2.64471e-01 7.60165e-01
8.54940e-01 4.56695e-01 2.50401e-01
-9.63187e-01 -2.22974e-01 9.25939e-02
2.47098e-01 8.69144e-02 -9.63672e-01
-9.17143e-01 -1.24580e-01 3.73869e-01
-4.33729e-02 -1.44983e-02 9.99663e-01
9.56992e-01 3.75002e-02 -2.85570e-01
4.16821e-01 -2.74362e-02 -9.05569e-01
-8.67833e-02 -8.57143e-02 -9.92340e-01
0.00000e+00 0.00000e+00 1.00000e+00
0.00000e+00 0.00000e+00 1.00000e+00
7.66717e-01 2.22945e-02 -6.42165e-01
3.39792e-01 1.28746e-01 9.26716e-01
-3.70001e-01 2.64296e-01 -8.87902e-01
9.94210e-01 2.59875e-02 1.00137e-01
6.88869e-01 4.00253e-02 -7.19595e-01
-6.46436e-01 5.27057e-01 5.49385e-01
3.70480e-01 -2.12993e-04 9.21343e-01
-3.56006e-01 6.89064e-01 6.27261e-01
-4.97083e-01 3.14119e-01 -8.10257e-01
-8.98767e-01 -3.31115e-01 2.92594e-01
-9.21343e-01 -3.01475e-01 -2.48892e-01
7.45410e-02 3.51653e-01 9.30255e-01
-5.53785e-01 -3.65748e-02 -8.23448e-01
7.40704e-01 4.77193e-01 -4.70583e-01
6.15422e-01 2.71129e-01 -7.36006e-01
-9.56516e-01 -1.32712e-01 -2.58491e-01
8.59183e-01 1.44970e-01 4.85742e-01
-2.54460e-01 -2.41556e-02 9.61892e-01
-6.28367e-01 -7.39477e-02 -7.74843e-01
0.00000e+00 0.00000e+00 1.00000e+00
0.00000e+00 0.00000e+00 1.00000e+00
-6.45296e-01 5.06805e-02 7.64679e-01
9.85375e-01 4.36808e-02 1.16546e-01
9.21622e-01 2.97157e-02 3.90172e-01
8.86556e-01 -3.23680e-02 -4.52296e-01
9.64103e-01 -2.07812e-01 -1.25547e-01
-4.07969e-01 4.92016e-01 7.68225e-01
8.17383e-01 -5.49332e-01 1.41318e-01
-1.15600e-01 5.32393e-01 8.30257e-01
-1.63892e-01 4.42542e-01 -8.73556e-01
-6.54785e-02 8.48605e-01 -5.11847e-01
-3.40219e-01 -1.29943e-01 -9.23915e-01
4.51704e-02 2.53160e-01 9.59179e-01
6.13378e-01 7.23123e-01 3.01264e-01
-5.68833e-01 -1.71371e-01 -8.03709e-01
-1.00562e-01 1.59153e-01 9.76131e-01
-5.38832e-01 -4.95488e-03 8.37465e-01
-6.23614e-01 9.95751e-03 7.82907e-01
9.52189e-01 2.34140e-01 1.58328e-01
8.11764e-01 8.68639e-02 5.80593e-01
0.00000e+00 0.00000e+00 1.00000e+00
0.00000e+00 0.00000e+00 1.00000e+00
-1.90651e-01 2.41472e-03 9.82695e-01
-2.68182e-01 2.10379e-01 -9.34066e-01
7.90425e-01 -2.27115e-02 -6.04362e-01
-2.66313e-01 3.40833e-01 9.00499e-01
2.59086e-01 -3.96531e-02 -9.65384e-01
6.00060e-01 -5.23255e-01 -6.04673e-01
2.43573e-02 2.58037e-02 -9.98722e-01
-3.50903e-01 8.96928e-01 -2.64097e-01
3.71263e-03 -6.02597e-01 -7.95961e-01
-5.97401e-02 -6.85433e-01 7.23577e-01
-1.23334e-01 -2.66677e-01 9.54279e-01
-4.55867e-01 -8.75412e-01 1.52210e-01
3.16357e-01 5.49704e-01 7.72293e-01
-7.72817e-01 -6.24578e-01 1.11249e-01
-6.09373e-01 -1.93126e-01 7.70053e-01
1.46363e-01 3.23714e-01 9.33961e-01
5.60609e-01 4.08994e-01 -7.13362e-01
4.79985e-01 3.08128e-01 8.14633e-01
-8.29370e-01 7.90606e-02 5.55070e-01
0.00000e+00 0.00000e+00 1.00000e+00
0.00000e+00 0.00000e+00 1.00000e+00
-9.88778e-01 8.52725e-02 -1.28523e-01
4.34906e-01 3.27988e-02 -9.00083e-01
7.63558e-01 -1.64020e-01 -6.14014e-01
-2.76249e-02 1.06936e-01 -9.87967e-01
-1.11197e-02 1.06746e-02 9.96537e-01
2.17706e-01 -4.20335e-01 8.81863e-01
1.81758e-01 -4.85234e-01 8.48483e-01
5.16072e-02 -4.09495e-01 -9.07445e-01
1.91458e-02 -8.70581e-01 -4.88191e-01
-3.48710e-02 -1.78878e-01 -9.82013e-01
1.02728e-01 8.32100e-01 5.41773e-01
-1.21184e-01 -1.43798e-01 -9.78920e-01
-3.58660e-01 -6.61244e-01 -6.49577e-01
1.35616e-01 3.65423e-01 9.20747e-01
5.07508e-01 7.34469e-01 -4.43180e-01
-9.20610e-01 -3.65706e-01 8.83846e-02
-8.35712e-02 2.39592e-01 9.60687e-01
-9.02580e-01 4.79163e-02 -4.28762e-01
-7.55596e-02 2.40948e-01 -9.68019e-01
0.00000e+00 0.00000e+00 1.00000e+00
0.00000e+00 0.00000e+00 1.00000e+00
2.48444e-01 -1.13751e-01 -9.64213e-01
7.70918e-01 -1.75031e-01 6.14684e-01
-7.19730e-01 5.44003e-01 4.30723e-01
-1.10103e-01 1.01047e-01 9.82234e-01
-6.07893e-01 7.41770e-01 -2.63424e-01
-3.59692e-01 4.92752e-01 7.91170e-01
-2.31694e-01 4.86458e-01 -8.37432e-01
1.03593e-01 -9.32998e-01 -3.43830e-01
-1.67538e-01 8.29987e-01 5.33732e-01
-7.41414e-03 -9.99891e-01 3.97229e-02
-3.79904e-03 -1.37453e-01 9.91434e-01
-1.53782e-02 2.05844e-01 -9.77844e-01
-2.84560e-01 -6.75000e-01 6.73807e-01
1.56310e-01 5.58061e-01 8.13736e-01
-6.72351e-01 -7.24635e-01 -1.07346e-01
-7.90863e-01 -5.23372e-01 2.95783e-01
3.87507e-01 5.28895e-01 -7.54937e-01
-9.20159e-01 -7.26769e-02 -3.88453e-01
8.43779e-01 3.67518e-01 -3.96775e-01
0.00000e+00 0.00000e+00 1.00000e+00
0.00000e+00 0.00000e+00 1.00000e+00
-9.62383e-01 1.00053e-01 -2.76813e-01
-8.12382e-01 5.01705e-01 -2.96297e-01
6.32435e-02 -7.32657e-02 -9.96706e-01
-1.93031e-01 1.76692e-01 -9.65061e-01
-5.10404e-01 7.87797e-01 3.24106e-01
-2.50011e-01 4.69673e-01 -8.41135e-01
-1.72228e-01 4.56838e-01 8.74118e-01
-1.26568e-01 3.56634e-01 9.22983e-01
-4.11807e-02 1.47306e-01 -9.87820e-01
3.69144e-02 4.47941e-01 -8.93461e-01
8.23270e-04 -3.93694e-01 -9.18717e-01
7.08627e-03 4.67355e-01 -8.81185e-01
3.18123e-04 5.23088e-01 -8.53550e-01
-1.37007e-01 -6.69141e-02 -9.83372e-01
-3.63488e-01 -4.34039e-01 -8.16220e-01
9.05531e-02 4.52511e-01 -8.86939e-01
-4.98153e-01 -2.43315e-01 8.33861e-01
-2.62139e-01 4.21162e-02 -9.63632e-01
7.07058e-01 2.82090e-01 -6.58804e-01
0.00000e+00 0.00000e+00 1.00000e+00
0.00000e+00 0.00000e+00 1.00000e+00
5.41043e-01 -5.89629e-01 6.06408e-01
-1.14868e-01 3.98666e-02 9.98559e-01
-2.60383e-01 3.31101e-01 -9.06447e-01
2.01418e-01 -7.79032e-01 -5.96118e-01
-2.62117e-01 6.58384e-01 7.06020e-01
1.18602e-01 -8.84021e-01 4.39505e-01
7.70978e-02 -9.81210e-01 1.33606e-01
-7.76073e-02 4.25565e-01 -8.96422e-01
1.79834e-02 -3.01732e-01 9.50545e-01
4.96662e-02 8.45417e-01 -5.28722e-01
-1.33687e-02 -9.70032e-01 2.32103e-01
1.36699e-02 9.88793e-01 -1.14137e-01
-2.79889e-01 -9.26793e-01 2.22077e-01
-4.58527e-02 6.20891e-01 7.75212e-01
-3.11473e-01 -4.69069e-01 8.26441e-01
-1.64770e-01 3.84847e-02 -9.87034e-01
3.60982e-01 9.01149e-01 2.39002e-01
-7.36306e-01 -6.40090e-01 -2.47261e-01
7.92962e-01 1.54088e-01 -5.96726e-01
0.00000e+00 0.00000e+00 1.00000e+00
0.00000e+00 0.00000e+00 1.00000e+00
-8.59202e-01 4.10673e-01 -2.96137e-01
-3.37210e-01 8.44511e-01 4.26627e-01
-2.34106e-01 8.19602e-01 -5.35260e-01
-1.46151e-01 4.87897e-01 8.62809e-01
-8.22909e-02 6.36633e-01 -7.67207e-01
-9.24244e-02 9.44643e-01 -3.18349e-01
-5.87432e-02 9.07263e-01 -4.21004e-01
-1.09235e-02 -1.12743e-01 -9.94342e-01
2.06249e-02 -8.12079e-03 -9.99601e-01
4.36319e-02 -5.99299e-01 -7.98848e-01
-1.32063e-02 -4.66857e-01 -8.84317e-01
-1.26275e-01 -9.91266e-01 4.59858e-02
-2.74125e-01 -8.97620e-01 -3.49984e-01
-1.96968e-01 6.17933e-01 7.63504e-01
-3.45227e-01 -9.29783e-01 -1.29110e-01
-1.46518e-01 6.68003e-01 -7.32027e-01
-3.40535e-01 -4.58752e-01 -8.28884e-01
2.94944e-01 8.55668e-01 4.34734e-01
-1.73887e-01 -9.35977e-01 -2.96046e-01
0.00000e+00 0.00000e+00 1.00000e+00
0.00000e+00 0.00000e+00 1.00000e+00
0.00000e+00 0.00000e+00 1.00000e+00
0.00000e+00 0.00000e+00 1.00000e+00
0.00000e+00 0.00000e+00 1.00000e+00
0.00000e+00 0.00000e+00 1.00000e+00
0.00000e+00 0.00000e+00 1.00000e+00
0.00000e+00 0.00000e+00 1.00000e+00
0.00000e+00 0.00000e+00 1.00000e+00
0.00000e+00 0.00000e+00 1.00000e+00
0.00000e+00 0.00000e+00 1.00000e+00
0.00000e+00 0.00000e+00 1.00000e+00
0.00000e+00 0.00000e+00 1.00000e+00
0.00000e+00 0.00000e+00 1.00000e+00
0.00000e+00 0.00000e+00 1.00000e+00
0.00000e+00 0.00000e+00 1.00000e+00
0.00000e+00 0.00000e+00 1.00000e+00
0.00000e+00 0.00000e+00 1.00000e+00
0.00000e+00 0.00000e+00 1.00000e+00
0.00000e+00 0.00000e+00 1.00000e+00
0.00000e+00 0.00000e+00 1.00000e+00
0.00000e+00 0.00000e+00 1.00000e+00
VECTORS Disp_FEM float
0.00000e+00 0.00000e+00 0.00000e+00
0.00000e+00 0.00000e+00 0.00000e+00
0.00000e+00 0.00000e+00 0.00000e+00
0.00000e+00 0.00000e+00 0.00000e+00
0.00000e+00 0.00000e+00 0.00000e+00
0.00000e+00 0.00000e+00 0.00000e+00
0.00000e+00 0.00000e+00 0.00000e+00
0.00000e+00 0.00000e+00 0.00000e+00
0.00000e+00 0.00000e+00 0.00000e+00
0.00000e+00 0.00000e+00 0.00000e+00
0.00000e+00 0.00000e+00 0.00000e+00
0.00000e+00 0.00000e+00 0.00000e+00
0.00000e+00 0.00000e+00 0.00000e+00
0.00000e+00 0.00000e+00 0.00000e+00
0.00000e+00 0.00000e+00 0.00000e+00
0.00000e+00 0.00000e+00 0.00000e+00
0.00000e+00 0.00000e+00 0.00000e+00
0.00000e+00 0.00000e+00 0.00000e+00
0.00000e+00 0.00000e+00 0.00000e+00
0.00000e+00 0.00000e+00 0.00000e+00
0.00000e+00 0.00000e+00 0.00000e+00
0.00000e+00 0.00000e+00 0.00000e+00
-1.86370e-21 -1.86370e-21 -9.22329e-05
-2.94950e-21 -4.30693e-21 -3.48020e-04
-3.40390e-21 -7.53324e-21 -6.93253e-04
-3.45570e-21 -1.09252e-20 -1.05715e-03
-3.22891e-21 -1.41822e-20 -1.40042e-03
-2.79407e-21 -1.70489e-20 -1.69964e-03
-2.21365e-21 -1.93950e-20 -1.94122e-03
-1.52927e-21 -2.11191e-20 -2.11762e-03
-7.80534e-22 -2.21747e-20 -2.22473e-03
7.80051e-35 -2.25277e-20 -2.26063e-03
7.80534e-22 -2.21747e-20 -2.22473e-03
1.52927e-21 -2.11191e-20 -2.11762e-03
2.21365e-21 -1.93950e-20 -1.94122e-03
2.79407e-21 -1.70489e-20 -1.69964e-03
3.22891e-21 -1.41822e-20 -1.40042e-03
3.45570e-21 -1.09252e-20 -1.05715e-03
3.40390e-21 -7.53324e-21 -6.93253e-04
2.94950e-21 -4.30693e-21 -3.48020e-04
1.86370e-21 -1.86370e-21 -9.22329e-05
0.00000e+00 0.00000e+00 0.00000e+00
0.00000e+00 0.00000e+00 0.00000e+00
-4.30693e-21 -2.94950e-21 -3.48020e-04
-6.99031e-21 -6.99031e-21 -1.25472e-03
-8.07261e-21 -1.18008e-20 -2.45790e-03
-8.13881e-21 -1.70148e-20 -3.74115e-03
-7.52052e-21 -2.20921e-20 -4.96252e-03
-6.44865e-21 -2.66665e-20 -6.03511e-03
-5.06443e-21 -3.04492e-20 -6.90605e-03
-3.47865e-21 -3.32680e-20 -7.54449e-03
-1.76823e-21 -3.49975e-20 -7.93318e-03
9.51306e-34 -3.55834e-20 -8.06360e-03
1.76823e-21 -3.49975e-20 -7.93318e-03
3.47865e-21 -3.32680e-20 -7.54449e-03
5.06443e-21 -3.04492e-20 -6.90605e-03
6.44865e-21 -2.66665e-20 -6.03511e-03
7.52052e-21 -2.20921e-20 -4.96252e-03
8.13881e-21 -1.70148e-20 -3.74115e-03
8.07261e-21 -1.18008e-20 -2.45790e-03
6.99031e-21 -6.99031e-21 -1.25472e-03
4.30693e-21 -2.94950e-21 -3.48020e-04
0.00000e+00 0.00000e+00 0.00000e+00
0.00000e+00 0.00000e+00 0.00000e+00
-7.53324e-21 -3.40390e-21 -6.93253e-04
-1.18008e-20 -8.07261e-21 -2.45790e-03
-1.36759e-20 -1.36759e-20 -4.77525e-03
-1.37530e-20 -1.96145e-20 -7.26177e-03
-1.26734e-20 -2.55098e-20 -9.64849e-03
-1.08164e-20 -3.08593e-20 -1.17593e-02
-8.46427e-21 -3.53528e-20 -1.34831e-02
-5.79335e-21 -3.87158e-20 -1.47519e-02
-2.93965e-21 -4.08015e-20 -1.55264e-02
1.42917e-34 -4.15025e-20 -1.57866e-02
2.93965e-21 -4.08015e-20 -1.55264e-02
5.79335e-21 -3.87158e-20 -1.47519e-02
8.46427e-21 -3.53528e-20 -1.34831e-02
1.08164e-20 -3.08593e-20 -1.17593e-02
1.26734e-20 -2.55098e-20 -9.64849e-03
1.37530e-20 -1.96145e-20 -7.26177e-03
1.36759e-20 -1.36759e-20 -4.77525e-03
1.18008e-20 -8.07261e-21 -2.45790e-03
7.53324e-21 -3.40390e-21 -6.93253e-04
0.00000e+00 0.00000e+00 0.00000e+00
0.00000e+00 0.00000e+00 0.00000e+00
-1.09252e-20 -3.45570e-21 -1.05715e-03
-1.70148e-20 -8.13881e-21 -3.74115e-03
-1.96145e-20 -1.37530e-20 -7.26177e-03
-1.97752e-20 -1.97752e-20 -1.10517e-02
-1.82145e-20 -2.57258e-20 -1.47101e-02
-1.55440e-20 -3.12010e-20 -1.79634e-02
-1.21462e-20 -3.58150e-20 -2.06323e-02
-8.30721e-21 -3.93073e-20 -2.26035e-02
-4.21072e-21 -4.14711e-20 -2.38096e-02
2.29926e-33 -4.22086e-20 -2.42153e-02
4.21072e-21 -4.14711e-20 -2.38096e-02
8.30721e-21 -3.93073e-20 -2.26035e-02
1.21462e-20 -3.58150e-20 -2.06323e-02
1.55440e-20 -3.12010e-20 -1.79634e-02
1.82145e-20 -2.57258e-20 -1.47101e-02
1.97752e-20 -1.97752e-20 -1.10517e-02
1.96145e-20 -1.37530e-20 -7.26177e-03
1.70148e-20 -8.13881e-21 -3.74115e-03
1.09252e-20 -3.45570e-21 -1.05715e-03
0.00000e+00 0.00000e+00 0.00000e+00
0.00000e+00 0.00000e+00 0.00000e+00
-1.41822e-20 -3.22891e-21 -1.40042e-03
-2.20921e-20 -7.52052e-21 -4.96252e-03
-2.55098e-20 -1.26734e-20 -9.64849e-03
-2.57258e-20 -1.82145e-20 -1.47101e-02
-2.37496e-20 -2.37496e-20 -1.96156e-02
-2.02778e-20 -2.88405e-20 -2.39956e-02
-1.58580e-20 -3.31751e-20 -2.76012e-02
-1.08436e-20 -3.64563e-20 -3.02714e-02
-5.49773e-21 -3.85083e-20 -3.19081e-02
-1.01871e-34 -3.92003e-20 -3.24591e-02
5.49773e-21 -3.85083e-20 -3.19081e-02
1.08436e-20 -3.64563e-20 -3.02714e-02
1.58580e-20 -3.31751e-20 -2.76012e-02
2.02778e-20 -2.88405e-20 -2.39956e-02
2.37496e-20 -2.37496e-20 -1.96156e-02
2.57258e-20 -1.82145e-20 -1.47101e-02
2.55098e-20 -1.26734e-20 -9.64849e-03
2.20921e-20 -7.52052e-21 -4.96252e-03
1.41822e-20 -3.22891e-21 -1.40042e-03
0.00000e+00 0.00000e+00 0.00000e+00
0.00000e+00 0.00000e+00 0.00000e+00
-1.70489e-20 -2.79407e-21 -1.69964e-03
-2.66665e-20 -6.44865e-21 -6.03511e-03
-3.08593e-20 -1.08164e-20 -1.17593e-02
-3.12010e-20 -1.55440e-20 -1.79634e-02
-2.88405e-20 -2.02778e-20 -2.39956e-02
-2.46711e-20 -2.46711e-20 -2.93975e-02
-1.93069e-20 -2.84097e-20 -3.38558e-02
-1.32140e-20 -3.12628e-20 -3.71642e-02
-6.69991e-21 -3.30409e-20 -3.91949e-02
1.32030e-33 -3.36492e-20 -3.98790e-02
6.69991e-21 -3.30409e-20 -3.91949e-02
1.32140e-20 -3.12628e-20 -3.71642e-02
1.93069e-20 -2.84097e-20 -3.38558e-02
2.46711e-20 -2.46711e-20 -2.93975e-02
2.88405e-20 -2.02778e-20 -2.39956e-02
3.12010e-20 -1.55440e-20 -1.79634e-02
3.08593e-20 -1.08164e-20 -1.17593e-02
2.66665e-20 -6.44865e-21 -6.03511e-03
1.70489e-20 -2.79407e-21 -1.69964e-03
0.00000e+00 0.00000e+00 0.00000e+00
0.00000e+00 0.00000e+00 0.00000e+00
-1.93950e-20 -2.21365e-21 -1.94122e-03
-3.04492e-20 -5.06443e-21 -6.90605e-03
-3.53528e-20 -8.46427e-21 -1.34831e-02
-3.58150e-20 -1.21462e-20 -2.06323e-02
-3.31751e-20 -1.58580e-20 -2.76012e-02
-2.84097e-20 -1.93069e-20 -3.38558e-02
-2.22628e-20 -2.22628e-20 -3.90276e-02
-1.52441e-20 -2.45139e-20 -4.28710e-02
-7.73430e-21 -2.59276e-20 -4.52324e-02
-6.80398e-33 -2.64053e-20 -4.60284e-02
7.73430e-21 -2.59276e-20 -4.52324e-02
1.52441e-20 -2.45139e-20 -4.28710e-02
2.22628e-20 -2.22628e-20 -3.90276e-02
2.84097e-20 -1.93069e-20 -3.38558e-02
3.31751e-20 -1.58580e-20 -2.76012e-02
3.58150e-20 -1.21462e-20 -2.06323e-02
3.53528e-20 -8.46427e-21 -1.34831e-02
3.04492e-20 -5.06443e-21 -6.90605e-03
1.93950e-20 -2.21365e-21 -1.94122e-03
0.00000e+00 0.00000e+00 0.00000e+00
0.00000e+00 0.00000e+00 0.00000e+00
-2.11191e-20 -1.52927e-21 -2.11762e-03
-3.32680e-20 -3.47865e-21 -7.54449e-03
-3.87158e-20 -5.79335e-21 -1.47519e-02
-3.93073e-20 -8.30721e-21 -2.26035e-02
-3.64563e-20 -1.08436e-20 -3.02714e-02
-3.12628e-20 -1.32140e-20 -3.71642e-02
-2.45139e-20 -1.52441e-20 -4.28710e-02
-1.67995e-20 -1.67995e-20 -4.71162e-02
-8.52462e-21 -1.77716e-20 -4.97263e-02
-5.88378e-33 -1.81048e-20 -5.06064e-02
8.52462e-21 -1.77716e-20 -4.97263e-02
1.67995e-20 -1.67995e-20 -4.71162e-02
2.45139e-20 -1.52441e-20 -4.28710e-02
3.12628e-20 -1.32140e-20 -3.71642e-02
3.64563e-20 -1.08436e-20 -3.02714e-02
3.93073e-20 -8.30721e-21 -2.26035e-02
3.87158e-20 -5.79335e-21 -1.47519e-02
3.32680e-20 -3.47865e-21 -7.54449e-03
2.11191e-20 -1.52927e-21 -2.11762e-03
0.00000e+00 0.00000e+00 0.00000e+00
0.00000e+00 0.00000e+00 0.00000e+00
-2.21747e-20 -7.80534e-22 -2.22473e-03
-3.49975e-20 -1.76823e-21 -7.93318e-03
-4.08015e-20 -2.93965e-21 -1.55264e-02
-4.14711e-20 -4.21072e-21 -2.38096e-02
-3.85083e-20 -5.49773e-21 -3.19081e-02
-3.30409e-20 -6.69991e-21 -3.91949e-02
-2.59276e-20 -7.73430e-21 -4.52324e-02
-1.77716e-20 -8.52462e-21 -4.97263e-02
-9.02181e-21 -9.02181e-21 -5.24905e-02
-6.56298e-33 -9.18991e-21 -5.34227e-02
9.02181e-21 -9.02181e-21 -5.24905e-02
1.77716e-20 -8.52462e-21 -4.97263e-02
2.59276e-20 -7.73430e-21 -4.52324e-02
3.30409e-20 -6.69991e-21 -3.91949e-02
3.85083e-20 -5.49773e-21 -3.19081e-02
4.14711e-20 -4.21072e-21 -2.38096e-02
4.08015e-20 -2.93965e-21 -1.55264e-02
3.49975e-20 -1.76823e-21 -7.93318e-03
2.21747e-20 -7.80534e-22 -2.22473e-03
0.00000e+00 0.00000e+00 0.00000e+00
0.00000e+00 0.00000e+00 0.00000e+00
-2.25277e-20 -7.10512e-34 -2.26063e-03
-3.55834e-20 -1.74042e-33 -8.06360e-03
-4.15025e-20 -3.91535e-33 -1.57866e-02
-4.22086e-20 -5.47729e-33 -2.42153e-02
-3.92003e-20 -4.87073e-33 -3.24591e-02
-3.36492e-20 -7.44442e-33 -3.98790e-02
-2.64053e-20 -8.53385e-33 -4.60284e-02
-1.81048e-20 -5.22730e-33 -5.06064e-02
-9.18991e-21 -1.85744e-33 -5.34227e-02
-7.45696e-33 -5.33448e-34 -5.43725e-02
9.18991e-21 -1.39378e-33 -5.34227e-02
1.81048e-20 1.21543e-33 -5.06064e-02
2.64053e-20 -2.33358e-33 -4.60284e-02
3.36492e-20 -3.51030e-33 -3.98790e-02
3.92003e-20 -3.36558e-33 -3.24591e-02
4.22086e-20 -4.51544e-33 -2.42153e-02
4.15025e-20 -2.47114e-33 -1.57866e-02
3.55834e-20 -1.83935e-33 -8.06360e-03
2.25277e-20 -6.77557e-34 -2.26063e-03
0.00000e+00 0.00000e+00 0.00000e+00
0.00000e+00 0.00000e+00 0.00000e+00
-2.21747e-20 7.80534e-22 -2.22473e-03
-3.49975e-20 1.76823e-21 -7.93318e-03
-4.08015e-20 2.93965e-21 -1.55264e-02
-4.14711e-20 4.21072e-21 -2.38096e-02
-3.85083e-20 5.49773e-21 -3.19081e-02
-3.30409e-20 6.69991e-21 -3.91949e-02
-2.59276e-20 7.73430e-21 -4.52324e-02
-1.77716e-20 8.52462e-21 -4.97263e-02
-9.02181e-21 9.02181e-21 -5.24905e-02
-6.98527e-33 9.18991e-21 -5.34227e-02
9.02181e-21 9.02181e-21 -5.24905e-02
1.77716e-20 8.52462e-21 -4.97263e-02
2.59276e-20 7.73430e-21 -4.52324e-02
3.30409e-20 6.69991e-21 -3.91949e-02
3.85083e-20 5.49773e-21 -3.19081e-02
4.14711e-20 4.21072e-21 -2.38096e-02
4.08015e-20 2.93965e-21 -1.55264e-02
3.49975e-20 1.76823e-21 -7.93318e-03
2.21747e-20 7.80534e-22 -2.22473e-03
0.00000e+00 0.00000e+00 0.00000e+00
0.00000e+00 0.00000e+00 0.00000e+00
-2.11191e-20 1.52927e-21 -2.11762e-03
-3.32680e-20 3.47865e-21 -7.54449e-03
-3.87158e-20 5.79335e-21 -1.47519e-02
-3.93073e-20 8.30721e-21 -2.26035e-02
-3.64563e-20 1.08436e-20 -3.02714e-02
-3.12628e-20 1.32140e-20 -3.71642e-02
-2.45139e-20 1.52441e-20 -4.28710e-02
-1.67995e-20 1.67995e-20 -4.71162e-02
-8.52462e-21 1.77716e-20 -4.97263e-02
-6.31671e-33 1.81048e-20 -5.06064e-02
8.52462e-21 1.77716e-20 -4.97263e-02
1.67995e-20 1.67995e-20 -4.71162e-02
2.45139e-20 1.52441e-20 -4.28710e-02
3.12628e-20 1.32140e-20 -3.71642e-02
3.64563e-20 1.08436e-20 -3.02714e-02
3.93073e-20 8.30721e-21 -2.26035e-02
3.87158e-20 5.79335e-21 -1.47519e-02
3.32680e-20 3.47865e-21 -7.54449e-03
2.11191e-20 1.52927e-21 -2.11762e-03
0.00000e+00 0.00000e+00 0.00000e+00
0.00000e+00 0.00000e+00 0.00000e+00
-1.93950e-20 2.21365e-21 -1.94122e-03
-3.04492e-20 5.06443e-21 -6.90605e-03
-3.53528e-20 8.46427e-21 -1.34831e-02
-3.58150e-20 1.21462e-20 -2.06323e-02
-3.31751e-20 1.58580e-20 -2.76012e-02
-2.84097e-20 1.93069e-20 -3.38558e-02
-2.22628e-20 2.22628e-20 -3.90276e-02
-1.52441e-20 2.45139e-20 -4.28710e-02
-7.73430e-21 2.59276e-20 -4.52324e-02
-4.94109e-34 2.64053e-20 -4.60284e-02
7.73430e-21 2.59276e-20 -4.52324e-02
1.52441e-20 2.45139e-20 -4.28710e-02
2.22628e-20 2.22628e-20 -3.90276e-02
2.84097e-20 1.93069e-20 -3.38558e-02
3.31751e-20 1.58580e-20 -2.76012e-02
3.58150e-20 1.21462e-20 -2.06323e-02
3.53528e-20 8.46427e-21 -1.34831e-02
3.04492e-20 5.06443e-21 -6.90605e-03
1.93950e-20 2.21365e-21 -1.94122e-03
0.00000e+00 0.00000e+00 0.00000e+00
0.00000e+00 0.00000e+00 0.00000e+00
-1.70489e-20 2.79407e-21 -1.69964e-03
-2.66665e-20 6.44865e-21 -6.03511e-03
-3.08593e-20 1.08164e-20 -1.17593e-02
-3.12010e-20 1.55440e-20 -1.79634e-02
-2.88405e-20 2.02778e-20 -2.39956e-02
-2.46711e-20 2.46711e-20 -2.93975e-02
-1.93069e-20 2.84097e-20 -3.38558e-02
-1.32140e-20 3.12628e-20 -3.71642e-02
-6.69991e-21 3.30409e-20 -3.91949e-02
-2.20053e-34 3.36492e-20 -3.98790e-02
6.69991e-21 3.30409e-20 -3.91949e-02
1.32140e-20 3.12628e-20 -3.71642e-02
1.93069e-20 2.84097e-20 -3.38558e-02
2.46711e-20 2.46711e-20 -2.93975e-02
2.88405e-20 2.02778e-20 -2.39956e-02
3.12010e-20 1.55440e-20 -1.79634e-02
3.08593e-20 1.08164e-20 -1.17593e-02
2.66665e-20 6.44865e-21 -6.03511e-03
1.70489e-20 2.79407e-21 -1.69964e-03
0.00000e+00 0.00000e+00 0.00000e+00
0.00000e+00 0.00000e+00 0.00000e+00
-1.41822e-20 3.22891e-21 -1.40042e-03
-2.20921e-20 7.52052e-21 -4.96252e-03
-2.55098e-20 1.26734e-20 -9.64849e-03
-2.57258e-20 1.82145e-20 -1.47101e-02
-2.37496e-20 2.37496e-20 -1.96156e-02
-2.02778e-20 2.88405e-20 -2.39956e-02
-1.58580e-20 3.31751e-20 -2.76012e-02
-1.08436e-20 3.64563e-20 -3.02714e-02
-5.49773e-21 3.85083e-20 -3.19081e-02
1.55872e-33 3.92003e-20 -3.24591e-02
5.49773e-21 3.85083e-20 -3.19081e-02
1.08436e-20 3.64563e-20 -3.02714e-02
1.58580e-20 3.31751e-20 -2.76012e-02
2.02778e-20 2.88405e-20 -2.39956e-02
2.37496e-20 2.37496e-20 -1.96156e-02
2.57258e-20 1.82145e-20 -1.47101e-02
2.55098e-20 1.26734e-20 -9.64849e-03
2.20921e-20 7.52052e-21 -4.96252e-03
1.41822e-20 3.22891e-21 -1.40042e-03
0.00000e+00 0.00000e+00 0.00000e+00
0.00000e+00 0.00000e+00 0.00000e+00
-1.09252e-20 3.45570e-21 -1.05715e-03
-1.70148e-20 8.13881e-21 -3.74115e-03
-1.96145e-20 1.37530e-20 -7.26177e-03
-1.97752e-20 1.97752e-20 -1.10517e-02
-1.82145e-20 2.57258e-20 -1.47101e-02
-1.55440e-20 3.12010e-20 -1.79634e-02
-1.21462e-20 3.58150e-20 -2.06323e-02
-8.30721e-21 3.93073e-20 -2.26035e-02
-4.21072e-21 4.14711e-20 -2.38096e-02
1.44940e-33 4.22086e-20 -2.42153e-02
4.21072e-21 4.14711e-20 -2.38096e-02
8.30721e-21 3.93073e-20 -2.26035e-02
1.21462e-20 3.58150e-20 -2.06323e-02
1.55440e-20 3.12010e-20 -1.79634e-02
1.82145e-20 2.57258e-20 -1.47101e-02
1.97752e-20 1.97752e-20 -1.10517e-02
1.96145e-20 1.37530e-20 -7.26177e-03
1.70148e-20 8.13881e-21 -3.74115e-03
1.09252e-20 3.45570e-21 -1.05715e-03
0.00000e+00 0.00000e+00 0.00000e+00
0.00000e+00 0.00000e+00 0.00000e+00
-7.53324e-21 3.40390e-21 -6.93253e-04
-1.18008e-20 8.07261e-21 -2.45790e-03
-1.36759e-20 1.36759e-20 -4.77525e-03
-1.37530e-20 1.96145e-20 -7.26177e-03
-1.26734e-20 2.55098e-20 -9.64849e-03
-1.08164e-20 3.08593e-20 -1.17593e-02
-8.46427e-21 3.53528e-20 -1.34831e-02
-5.79335e-21 3.87158e-20 -1.47519e-02
-2.93965e-21 4.08015e-20 -1.55264e-02
1.70993e-33 4.15025e-20 -1.57866e-02
2.93965e-21 4.08015e-20 -1.55264e-02
5.79335e-21 3.87158e-20 -1.47519e-02
8.46427e-21 3.53528e-20 -1.34831e-02
1.08164e-20 3.08593e-20 -1.17593e-02
1.26734e-20 2.55098e-20 -9.64849e-03
1.37530e-20 1.96145e-20 -7.26177e-03
1.36759e-20 1.36759e-20 -4.77525e-03
1.18008e-20 8.07261e-21 -2.45790e-03
7.53324e-21 3.40390e-21 -6.93253e-04
0.00000e+00 0.00000e+00 0.00000e+00
0.00000e+00 0.00000e+00 0.00000e+00
-4.30693e-21 2.94950e-21 -3.48020e-04
-6.99031e-21 6.99031e-21 -1.25472e-03
-8.07261e-21 1.18008e-20 -2.45790e-03
-8.13881e-21 1.70148e-20 -3.74115e-03
-7.52052e-21 2.20921e-20 -4.96252e-03
-6.44865e-21 2.66665e-20 -6.03511e-03
-5.06443e-21 3.04492e-20 -6.90605e-03
-3.47865e-21 3.32680e-20 -7.54449e-03
-1.76823e-21 3.49975e-20 -7.93318e-03
9.52053e-34 3.55834e-20 -8.06360e-03
1.76823e-21 3.49975e-20 -7.93318e-03
3.47865e-21 3.32680e-20 -7.54449e-03
5.06443e-21 3.04492e-20 -6.90605e-03
6.44865e-21 2.66665e-20 -6.03511e-03
7.52052e-21 2.20921e-20 -4.96252e-03
8.13881e-21 1.70148e-20 -3.74115e-03
8.07261e-21 1.18008e-20 -2.45790e-03
6.99031e-21 6.99031e-21 -1.25472e-03
4.30693e-21 2.94950e-21 -3.48020e-04
0.00000e+00 0.00000e+00 0.00000e+00
0.00000e+00 0.00000e+00 0.00000e+00
-1.86370e-21 1.86370e-21 -9.22329e-05
-2.94950e-21 4.30693e-21 -3.48020e-04
-3.40390e-21 7.53324e-21 -6.93253e-04
-3.45570e-21 1.09252e-20 -1.05715e-03
-3.22891e-21 1.41822e-20 -1.40042e-03
-2.79407e-21 1.70489e-20 -1.69964e-03
-2.21365e-21 1.93950e-20 -1.94122e-03
-1.52927e-21 2.11191e-20 -2.11762e-03
-7.80534e-22 2.21747e-20 -2.22473e-03
5.19387e-34 2.25277e-20 -2.26063e-03
7.80534e-22 2.21747e-20 -2.22473e-03
1.52927e-21 2.11191e-20 -2.11762e-03
2.21365e-21 1.93950e-20 -1.94122e-03
2.79407e-21 1.70489e-20 -1.69964e-03
3.22891e-21 1.41822e-20 -1.40042e-03
3.45570e-21 1.09252e-20 -1.05715e-03
3.40390e-21 7.53324e-21 -6.93253e-04
2.94950e-21 4.30693e-21 -3.48020e-04
1.86370e-21 1.86370e-21 -9.22329e-05
0.00000e+00 0.00000e+00 0.00000e+00
0.00000e+00 0.00000e+00 0.00000e+00
0.00000e+00 0.00000e+00 0.00000e+00
0.00000e+00 0.00000e+00 0.00000e+00
0.00000e+00 0.00000e+00 0.00000e+00
0.00000e+00 0.00000e+00 0.00000e+00
0.00000e+00 0.00000e+00 0.00000e+00
0.00000e+00 0.00000e+00 0.00000e+00
0.00000e+00 0.00000e+00 0.00000e+00
0.00000e+00 0.00000e+00 0.00000e+00
0.00000e+00 0.00000e+00 0.00000e+00
0.00000e+00 0.00000e+00 0.00000e+00
0.00000e+00 0.00000e+00 0.00000e+00
0.00000e+00 0.00000e+00 0.00000e+00
0.00000e+00 0.00000e+00 0.00000e+00
0.00000e+00 0.00000e+00 0.00000e+00
0.00000e+00 0.00000e+00 0.00000e+00
0.00000e+00 0.00000e+00 0.00000e+00
0.00000e+00 0.00000e+00 0.00000e+00
0.00000e+00 0.00000e+00 0.00000e+00
0.00000e+00 0.00000e+00 0.00000e+00
0.00000e+00 0.00000e+00 0.00000e+00
VECTORS angDisp_FEM float
0.00000e+00 0.00000e+00 0.00000e+00
0.00000e+00 0.00000e+00 0.00000e+00
0.00000e+00 0.00000e+00 0.00000e+00
0.00000e+00 0.00000e+00 0.00000e+00
0.00000e+00 0.00000e+00 0.00000e+00
0.00000e+00 0.00000e+00 0.00000e+00
0.00000e+00 0.00000e+00 0.00000e+00
0.00000e+00 0.00000e+00 0.00000e+00
0.00000e+00 0.00000e+00 0.00000e+00
0.00000e+00 0.00000e+00 0.00000e+00
0.00000e+00 0.00000e+00 0.00000e+00
0.00000e+00 0.00000e+00 0.00000e+00
0.00000e+00 0.00000e+00 0.00000e+00
0.00000e+00 0.00000e+00 0.00000e+00
0.00000e+00 0.00000e+00 0.00000e+00
0.00000e+00 0.00000e+00 0.00000e+00
0.00000e+00 0.00000e+00 0.00000e+00
0.00000e+00 0.00000e+00 0.00000e+00
0.00000e+00 0.00000e+00 0.00000e+00
0.00000e+00 0.00000e+00 0.00000e+00
0.00000e+00 0.00000e+00 0.00000e+00
0.00000e+00 0.00000e+00 0.00000e+00
3.83175e-03 -3.83175e-03 1.84976e-34
1.38282e-02 -6.65827e-03 -6.60383e-21
2.74347e-02 -7.55520e-03 -7.27190e-21
4.17822e-02 -7.44113e-03 -7.44930e-21
5.53591e-02 -6.71707e-03 -6.98406e-21
6.71976e-02 -5.62940e-03 -6.17922e-21
7.67693e-02 -4.34225e-03 -4.97129e-21
8.37595e-02 -2.94026e-03 -3.49495e-21
8.80069e-02 -1.48234e-03 -1.79773e-21
8.94300e-02 -4.94134e-16 4.68017e-34
8.80069e-02 1.48234e-03 1.79773e-21
8.37595e-02 2.94026e-03 3.49495e-21
7.67693e-02 4.34225e-03 4.97129e-21
6.71976e-02 5.62940e-03 6.17922e-21
5.53591e-02 6.71707e-03 6.98406e-21
4.17822e-02 7.44113e-03 7.44930e-21
2.74347e-02 7.55520e-03 7.27190e-21
1.38282e-02 6.65827e-03 6.60383e-21
3.83175e-03 3.83175e-03 -7.18453e-34
0.00000e+00 0.00000e+00 0.00000e+00
0.00000e+00 0.00000e+00 0.00000e+00
6.65827e-03 -1.38282e-02 6.60383e-21
2.23161e-02 -2.23161e-02 1.77610e-33
4.29848e-02 -2.57095e-02 -1.23772e-21
6.51814e-02 -2.55676e-02 -2.97661e-23
8.66247e-02 -2.32695e-02 1.03601e-21
1.05591e-01 -1.96376e-02 1.67409e-21
1.21118e-01 -1.52144e-02 1.75428e-21
1.32544e-01 -1.03386e-02 1.42126e-21
1.39528e-01 -5.22092e-03 7.81261e-22
1.41872e-01 5.13385e-15 -6.65099e-33
1.39528e-01 5.22092e-03 -7.81261e-22
1.32544e-01 1.03386e-02 -1.42126e-21
1.21118e-01 1.52144e-02 -1.75428e-21
1.05591e-01 1.96376e-02 -1.67409e-21
8.66247e-02 2.32695e-02 -1.03601e-21
6.51814e-02 2.55676e-02 2.97661e-23
4.29848e-02 2.57095e-02 1.23772e-21
2.23161e-02 2.23161e-02 -9.58122e-34
6.65827e-03 1.38282e-02 -6.60383e-21
0.00000e+00 0.00000e+00 0.00000e+00
0.00000e+00 0.00000e+00 0.00000e+00
7.55520e-03 -2.74347e-02 7.27190e-21
2.57095e-02 -4.29848e-02 1.23772e-21
4.96300e-02 -4.96300e-02 1.98348e-33
7.53380e-02 -4.98114e-02 9.87273e-22
1.00435e-01 -4.56786e-02 2.75422e-21
1.22875e-01 -3.87957e-02 3.73796e-21
1.41398e-01 -3.02018e-02 3.87407e-21
1.55125e-01 -2.05905e-02 3.10099e-21
1.63548e-01 -1.04187e-02 1.72103e-21
1.66383e-01 9.57878e-16 -1.38792e-33
1.63548e-01 1.04187e-02 -1.72103e-21
1.55125e-01 2.05905e-02 -3.10099e-21
1.41398e-01 3.02018e-02 -3.87407e-21
1.22875e-01 3.87957e-02 -3.73796e-21
1.00435e-01 4.56786e-02 -2.75422e-21
7.53380e-02 4.98114e-02 -9.87273e-22
4.96300e-02 4.96300e-02 9.60254e-34
2.57095e-02 4.29848e-02 -1.23772e-21
7.55520e-03 2.74347e-02 -7.27190e-21
0.00000e+00 0.00000e+00 0.00000e+00
0.00000e+00 0.00000e+00 0.00000e+00
7.44113e-03 -4.17822e-02 7.44930e-21
2.55676e-02 -6.51814e-02 2.97661e-23
4.98114e-02 -7.53380e-02 -9.87273e-22
7.60300e-02 -7.60300e-02 2.35926e-33
1.01746e-01 -7.01433e-02 1.74785e-21
1.24899e-01 -5.98779e-02 3.13868e-21
1.44128e-01 -4.68023e-02 3.56247e-21
1.58445e-01 -3.19996e-02 3.02921e-21
1.67260e-01 -1.62190e-02 1.71642e-21
1.70231e-01 1.44157e-14 -4.75491e-33
1.67260e-01 1.62190e-02 -1.71642e-21
1.58445e-01 3.19996e-02 -3.02921e-21
1.44128e-01 4.68023e-02 -3.56247e-21
1.24899e-01 5.98779e-02 -3.13868e-21
1.01746e-01 7.01433e-02 -1.74785e-21
7.60300e-02 7.60300e-02 4.20079e-33
4.98114e-02 7.53380e-02 9.87273e-22
2.55676e-02 6.51814e-02 -2.97661e-23
7.44113e-03 4.17822e-02 -7.44930e-21
0.00000e+00 0.00000e+00 0.00000e+00
0.00000e+00 0.00000e+00 0.00000e+00
6.71707e-03 -5.53591e-02 6.98406e-21
2.32695e-02 -8.66247e-02 -1.03601e-21
4.56786e-02 -1.00435e-01 -2.75422e-21
7.01433e-02 -1.01746e-01 -1.74785e-21
9.42682e-02 -9.42682e-02 1.64607e-33
1.16086e-01 -8.07836e-02 1.49189e-21
1.34282e-01 -6.33389e-02 2.27519e-21
1.47878e-01 -4.34039e-02 2.13198e-21
1.56269e-01 -2.20293e-02 1.27382e-21
1.59101e-01 1.51188e-15 -2.29795e-33
1.56269e-01 2.20293e-02 -1.27382e-21
1.47878e-01 4.34039e-02 -2.13198e-21
1.34282e-01 6.33389e-02 -2.27519e-21
1.16086e-01 8.07836e-02 -1.49189e-21
9.42682e-02 9.42682e-02 4.84206e-33
7.01433e-02 1.01746e-01 1.74785e-21
4.56786e-02 1.00435e-01 2.75422e-21
2.32695e-02 8.66247e-02 1.03601e-21
6.71707e-03 5.53591e-02 -6.98406e-21
0.00000e+00 0.00000e+00 0.00000e+00
0.00000e+00 0.00000e+00 0.00000e+00
5.62940e-03 -6.71976e-02 6.17922e-21
1.96376e-02 -1.05591e-01 -1.67409e-21
3.87957e-02 -1.22875e-01 -3.73796e-21
5.98779e-02 -1.24899e-01 -3.13868e-21
8.07836e-02 -1.16086e-01 -1.49189e-21
9.97654e-02 -9.97654e-02 1.70478e-33
1.15643e-01 -7.84054e-02 9.35019e-22
1.27536e-01 -5.38208e-02 1.15373e-21
1.34888e-01 -2.73450e-02 7.48944e-22
1.37372e-01 1.06377e-14 -6.56858e-33
1.34888e-01 2.73450e-02 -7.48944e-22
1.27536e-01 5.38208e-02 -1.15373e-21
1.15643e-01 7.84054e-02 -9.35019e-22
9.97654e-02 9.97654e-02 2.54584e-33
8.07836e-02 1.16086e-01 1.49189e-21
5.98779e-02 1.24899e-01 3.13868e-21
3.87957e-02 1.22875e-01 3.73796e-21
1.96376e-02 1.05591e-01 1.67409e-21
5.62940e-03 6.71976e-02 -6.17922e-21
0.00000e+00 0.00000e+00 0.00000e+00
0.00000e+00 0.00000e+00 0.00000e+00
4.34225e-03 -7.67693e-02 4.97129e-21
1.52144e-02 -1.21118e-01 -1.75428e-21
3.02018e-02 -1.41398e-01 -3.87407e-21
4.68023e-02 -1.44128e-01 -3.56247e-21
6.33389e-02 -1.34282e-01 -2.27519e-21
7.84054e-02 -1.15643e-01 -9.35019e-22
9.10379e-02 -9.10379e-02 8.48049e-33
1.00517e-01 -6.25705e-02 3.96645e-22
1.06383e-01 -3.18147e-02 3.33276e-22
1.08366e-01 -2.83367e-14 -1.05925e-32
1.06383e-01 3.18147e-02 -3.33276e-22
1.00517e-01 6.25705e-02 -3.96645e-22
9.10379e-02 9.10379e-02 -5.23329e-33
7.84054e-02 1.15643e-01 9.35019e-22
6.33389e-02 1.34282e-01 2.27519e-21
4.68023e-02 1.44128e-01 3.56247e-21
3.02018e-02 1.41398e-01 3.87407e-21
1.52144e-02 1.21118e-01 1.75428e-21
4.34225e-03 7.67693e-02 -4.97129e-21
0.00000e+00 0.00000e+00 0.00000e+00
0.00000e+00 0.00000e+00 0.00000e+00
2.94026e-03 -8.37595e-02 3.49495e-21
1.03386e-02 -1.32544e-01 -1.42126e-21
2.05905e-02 -1.55125e-01 -3.10099e-21
3.19996e-02 -1.58445e-01 -3.02921e-21
4.34039e-02 -1.47878e-01 -2.13198e-21
5.38208e-02 -1.27536e-01 -1.15373e-21
6.25705e-02 -1.00517e-01 -3.96645e-22
6.91440e-02 -6.91440e-02 2.03334e-32
7.32155e-02 -3.51754e-02 8.88330e-23
7.45925e-02 -2.51345e-14 2.54193e-32
7.32155e-02 3.51754e-02 -8.88330e-23
6.91440e-02 6.91440e-02 4.30907e-33
6.25705e-02 1.00517e-01 3.96645e-22
5.38208e-02 1.27536e-01 1.15373e-21
4.34039e-02 1.47878e-01 2.13198e-21
3.19996e-02 1.58445e-01 3.02921e-21
2.05905e-02 1.55125e-01 3.10099e-21
1.03386e-02 1.32544e-01 1.42126e-21
2.94026e-03 8.37595e-02 -3.49495e-21
0.00000e+00 0.00000e+00 0.00000e+00
0.00000e+00 0.00000e+00 0.00000e+00
1.48234e-03 -8.80069e-02 1.79773e-21
5.22092e-03 -1.39528e-01 -7.81261e-22
1.04187e-02 -1.63548e-01 -1.72103e-21
1.62190e-02 -1.67260e-01 -1.71642e-21
2.20293e-02 -1.56269e-01 -1.27382e-21
2.73450e-02 -1.34888e-01 -7.48944e-22
3.18147e-02 -1.06383e-01 -3.33276e-22
3.51754e-02 -7.32155e-02 -8.88330e-23
3.72579e-02 -3.72579e-02 6.41650e-33
3.79623e-02 -3.24895e-14 -5.12268e-33
3.72579e-02 3.72579e-02 1.60314e-32
3.51754e-02 7.32155e-02 8.88330e-23
3.18147e-02 1.06383e-01 3.33276e-22
2.73450e-02 1.34888e-01 7.48944e-22
2.20293e-02 1.56269e-01 1.27382e-21
1.62190e-02 1.67260e-01 1.71642e-21
1.04187e-02 1.63548e-01 1.72103e-21
5.22092e-03 1.39528e-01 7.81261e-22
1.48234e-03 8.80069e-02 -1.79773e-21
0.00000e+00 0.00000e+00 0.00000e+00
0.00000e+00 0.00000e+00 0.00000e+00
2.16583e-15 -8.94300e-02 -3.13098e-34
6.03240e-15 -1.41872e-01 4.98690e-33
1.61660e-14 -1.66383e-01 2.76765e-33
2.17793e-14 -1.70231e-01 -5.33519e-33
2.11591e-14 -1.59101e-01 -4.82266e-33
3.05623e-14 -1.37372e-01 1.14877e-32
3.58676e-14 -1.08366e-01 -7.17916e-33
2.08948e-14 -7.45925e-02 -8.64350e-33
7.31560e-15 -3.79623e-02 -4.91455e-33
-1.04712e-16 -3.38791e-14 -4.45631e-33
6.29550e-15 3.79623e-02 -1.56039e-32
-5.53829e-15 7.45925e-02 -6.12585e-34
1.00049e-14 1.08366e-01 1.10601e-32
1.46822e-14 1.37372e-01 2.83564e-33
1.45060e-14 1.59101e-01 5.22831e-33
1.91163e-14 1.70231e-01 4.30700e-33
1.01096e-14 1.66383e-01 -8.58793e-34
7.30371e-15 1.41872e-01 2.05839e-33
1.76410e-15 8.94300e-02 3.66071e-34
0.00000e+00 0.00000e+00 0.00000e+00
0.00000e+00 0.00000e+00 0.00000e+00
-1.48234e-03 -8.80069e-02 -1.79773e-21
-5.22092e-03 -1.39528e-01 7.81261e-22
-1.04187e-02 -1.63548e-01 1.72103e-21
-1.62190e-02 -1.67260e-01 1.71642e-21
-2.20293e-02 -1.56269e-01 1.27382e-21
-2.73450e-02 -1.34888e-01 7.48944e-22
-3.18147e-02 -1.06383e-01 3.33276e-22
-3.51754e-02 -7.32155e-02 8.88330e-23
-3.72579e-02 -3.72579e-02 1.21815e-32
-3.79623e-02 -3.08015e-14 -1.72210e-32
-3.72579e-02 3.72579e-02 -3.19584e-33
-3.51754e-02 7.32155e-02 -8.88330e-23
-3.18147e-02 1.06383e-01 -3.33276e-22
-2.73450e-02 1.34888e-01 -7.48944e-22
-2.20293e-02 1.56269e-01 -1.27382e-21
-1.62190e-02 1.67260e-01 -1.71642e-21
-1.04187e-02 1.63548e-01 -1.72103e-21
-5.22092e-03 1.39528e-01 -7.81261e-22
-1.48234e-03 8.80069e-02 1.79773e-21
0.00000e+00 0.00000e+00 0.00000e+00
0.00000e+00 0.00000e+00 0.00000e+00
-2.94026e-03 -8.37595e-02 -3.49495e-21
-1.03386e-02 -1.32544e-01 1.42126e-21
-2.05905e-02 -1.55125e-01 3.10099e-21
-3.19996e-02 -1.58445e-01 3.02921e-21
-4.34039e-02 -1.47878e-01 2.13198e-21
-5.38208e-02 -1.27536e-01 1.15373e-21
-6.25705e-02 -1.00517e-01 3.96645e-22
-6.91440e-02 -6.91440e-02 3.86224e-33
-7.32155e-02 -3.51754e-02 -8.88330e-23
-7.45925e-02 -2.45461e-14 8.58763e-33
-7.32155e-02 3.51754e-02 8.88330e-23
-6.91440e-02 6.91440e-02 -7.84816e-33
-6.25705e-02 1.00517e-01 -3.96645e-22
-5.38208e-02 1.27536e-01 -1.15373e-21
-4.34039e-02 1.47878e-01 -2.13198e-21
-3.19996e-02 1.58445e-01 -3.02921e-21
-2.05905e-02 1.55125e-01 -3.10099e-21
-1.03386e-02 1.32544e-01 -1.42126e-21
-2.94026e-03 8.37595e-02 3.49495e-21
0.00000e+00 0.00000e+00 0.00000e+00
0.00000e+00 0.00000e+00 0.00000e+00
-4.34225e-03 -7.67693e-02 -4.97129e-21
-1.52144e-02 -1.21118e-01 1.75428e-21
-3.02018e-02 -1.41398e-01 3.87407e-21
-4.68023e-02 -1.44128e-01 3.56247e-21
-6.33389e-02 -1.34282e-01 2.27519e-21
-7.84054e-02 -1.15643e-01 9.35019e-22
-9.10379e-02 -9.10379e-02 3.86916e-33
-1.00517e-01 -6.25705e-02 -3.96645e-22
-1.06383e-01 -3.18147e-02 -3.33276e-22
-1.08366e-01 1.91794e-16 7.17392e-33
-1.06383e-01 3.18147e-02 3.33276e-22
-1.00517e-01 6.25705e-02 3.96645e-22
-9.10379e-02 9.10379e-02 -1.04403e-32
-7.84054e-02 1.15643e-01 -9.35019e-22
-6.33389e-02 1.34282e-01 -2.27519e-21
-4.68023e-02 1.44128e-01 -3.56247e-21
-3.02018e-02 1.41398e-01 -3.87407e-21
-1.52144e-02 1.21118e-01 -1.75428e-21
-4.34225e-03 7.67693e-02 4.97129e-21
0.00000e+00 0.00000e+00 0.00000e+00
0.00000e+00 0.00000e+00 0.00000e+00
-5.62940e-03 -6.71976e-02 -6.17922e-21
-1.96376e-02 -1.05591e-01 1.67409e-21
-3.87957e-02 -1.22875e-01 3.73796e-21
-5.98779e-02 -1.24899e-01 3.13868e-21
-8.07836e-02 -1.16086e-01 1.49189e-21
-9.97654e-02 -9.97654e-02 -8.04422e-33
-1.15643e-01 -7.84054e-02 -9.35019e-22
-1.27536e-01 -5.38208e-02 -1.15373e-21
-1.34888e-01 -2.73450e-02 -7.48944e-22
-1.37372e-01 2.46529e-15 3.17861e-33
-1.34888e-01 2.73450e-02 7.48944e-22
-1.27536e-01 5.38208e-02 1.15373e-21
-1.15643e-01 7.84054e-02 9.35019e-22
-9.97654e-02 9.97654e-02 -8.86981e-33
-8.07836e-02 1.16086e-01 -1.49189e-21
-5.98779e-02 1.24899e-01 -3.13868e-21
-3.87957e-02 1.22875e-01 -3.73796e-21
-1.96376e-02 1.05591e-01 -1.67409e-21
-5.62940e-03 6.71976e-02 6.17922e-21
0.00000e+00 0.00000e+00 0.00000e+00
0.00000e+00 0.00000e+00 0.00000e+00
-6.71707e-03 -5.53591e-02 -6.98406e-21
-2.32695e-02 -8.66247e-02 1.03601e-21
-4.56786e-02 -1.00435e-01 2.75422e-21
-7.01433e-02 -1.01746e-01 1.74785e-21
-9.42682e-02 -9.42682e-02 -2.79800e-33
-1.16086e-01 -8.07836e-02 -1.49189e-21
-1.34282e-01 -6.33389e-02 -2.27519e-21
-1.47878e-01 -4.34039e-02 -2.13198e-21
-1.56269e-01 -2.20293e-02 -1.27382e-21
-1.59101e-01 9.14745e-15 2.92130e-33
-1.56269e-01 2.20293e-02 1.27382e-21
-1.47878e-01 4.34039e-02 2.13198e-21
-1.34282e-01 6.33389e-02 2.27519e-21
-1.16086e-01 8.07836e-02 1.49189e-21
-9.42682e-02 9.42682e-02 -4.10464e-33
-7.01433e-02 1.01746e-01 -1.74785e-21
-4.56786e-02 1.00435e-01 -2.75422e-21
-2.32695e-02 8.66247e-02 -1.03601e-21
-6.71707e-03 5.53591e-02 6.98406e-21
0.00000e+00 0.00000e+00 0.00000e+00
0.00000e+00 0.00000e+00 0.00000e+00
-7.44113e-03 -4.17822e-02 -7.44930e-21
-2.55676e-02 -6.51814e-02 -2.97661e-23
-4.98114e-02 -7.53380e-02 9.87273e-22
-7.60300e-02 -7.60300e-02 -4.82473e-33
-1.01746e-01 -7.01433e-02 -1.74785e-21
-1.24899e-01 -5.98779e-02 -3.13868e-21
-1.44128e-01 -4.68023e-02 -3.56247e-21
-1.58445e-01 -3.19996e-02 -3.02921e-21
-1.67260e-01 -1.62190e-02 -1.71642e-21
-1.70231e-01 9.63685e-15 -5.14230e-34
-1.67260e-01 1.62190e-02 1.71642e-21
-1.58445e-01 3.19996e-02 3.02921e-21
-1.44128e-01 4.68023e-02 3.56247e-21
-1.24899e-01 5.98779e-02 3.13868e-21
-1.01746e-01 7.01433e-02 1.74785e-21
-7.60300e-02 7.60300e-02 -6.25927e-34
-4.98114e-02 7.53380e-02 -9.87273e-22
-2.55676e-02 6.51814e-02 2.97661e-23
-7.44113e-03 4.17822e-02 7.44930e-21
0.00000e+00 0.00000e+00 0.00000e+00
0.00000e+00 0.00000e+00 0.00000e+00
-7.55520e-03 -2.74347e-02 -7.27190e-21
-2.57095e-02 -4.29848e-02 -1.23772e-21
-4.96300e-02 -4.96300e-02 -4.53496e-33
-7.53380e-02 -4.98114e-02 -9.87273e-22
-1.00435e-01 -4.56786e-02 -2.75422e-21
-1.22875e-01 -3.87957e-02 -3.73796e-21
-1.41398e-01 -3.02018e-02 -3.87407e-21
-1.55125e-01 -2.05905e-02 -3.10099e-21
-1.63548e-01 -1.04187e-02 -1.72103e-21
-1.66383e-01 8.96576e-15 8.93977e-33
-1.63548e-01 1.04187e-02 1.72103e-21
-1.55125e-01 2.05905e-02 3.10099e-21
-1.41398e-01 3.02018e-02 3.87407e-21
-1.22875e-01 3.87957e-02 3.73796e-21
-1.00435e-01 4.56786e-02 2.75422e-21
-7.53380e-02 4.98114e-02 9.87273e-22
-4.96300e-02 4.96300e-02 2.63022e-34
-2.57095e-02 4.29848e-02 1.23772e-21
-7.55520e-03 2.74347e-02 7.27190e-21
0.00000e+00 0.00000e+00 0.00000e+00
0.00000e+00 0.00000e+00 0.00000e+00
-6.65827e-03 -1.38282e-02 -6.60383e-21
-2.23161e-02 -2.23161e-02 -2.34348e-33
-4.29848e-02 -2.57095e-02 1.23772e-21
-6.51814e-02 -2.55676e-02 2.97661e-23
-8.66247e-02 -2.32695e-02 -1.03601e-21
-1.05591e-01 -1.96376e-02 -1.67409e-21
-1.21118e-01 -1.52144e-02 -1.75428e-21
-1.32544e-01 -1.03386e-02 -1.42126e-21
-1.39528e-01 -5.22092e-03 -7.81261e-22
-1.41872e-01 4.24187e-15 3.70085e-33
-1.39528e-01 5.22092e-03 7.81261e-22
-1.32544e-01 1.03386e-02 1.42126e-21
-1.21118e-01 1.52144e-02 1.75428e-21
-1.05591e-01 1.96376e-02 1.67409e-21
-8.66247e-02 2.32695e-02 1.03601e-21
-6.51814e-02 2.55676e-02 -2.97661e-23
-4.29848e-02 2.57095e-02 -1.23772e-21
-2.23161e-02 2.23161e-02 -7.59840e-35
-6.65827e-03 1.38282e-02 6.60383e-21
0.00000e+00 0.00000e+00 0.00000e+00
0.00000e+00 0.00000e+00 0.00000e+00
-3.83175e-03 -3.83175e-03 -2.34723e-34
-1.38282e-02 -6.65827e-03 6.60383e-21
-2.74347e-02 -7.55520e-03 7.27190e-21
-4.17822e-02 -7.44113e-03 7.44930e-21
-5.53591e-02 -6.71707e-03 6.98406e-21
-6.71976e-02 -5.62940e-03 6.17922e-21
-7.67693e-02 -4.34225e-03 4.97129e-21
-8.37595e-02 -2.94026e-03 3.49495e-21
-8.80069e-02 -1.48234e-03 1.79773e-21
-8.94300e-02 1.52602e-15 3.10823e-33
-8.80069e-02 1.48234e-03 -1.79773e-21
-8.37595e-02 2.94026e-03 -3.49495e-21
-7.67693e-02 4.34225e-03 -4.97129e-21
-6.71976e-02 5.62940e-03 -6.17922e-21
-5.53591e-02 6.71707e-03 -6.98406e-21
-4.17822e-02 7.44113e-03 -7.44930e-21
-2.74347e-02 7.55520e-03 -7.27190e-21
-1.38282e-02 6.65827e-03 -6.60383e-21
-3.83175e-03 3.83175e-03 1.03915e-34
0.00000e+00 0.00000e+00 0.00000e+00
0.00000e+00 0.00000e+00 0.00000e+00
0.00000e+00 0.00000e+00 0.00000e+00
0.00000e+00 0.00000e+00 0.00000e+00
0.00000e+00 0.00000e+00 0.00000e+00
0.00000e+00 0.00000e+00 0.00000e+00
0.00000e+00 0.00000e+00 0.00000e+00
0.00000e+00 0.00000e+00 0.00000e+00
0.00000e+00 0.00000e+00 0.00000e+00
0.00000e+00 0.00000e+00 0.00000e+00
0.00000e+00 0.00000e+00 0.00000e+00
0.00000e+00 0.00000e+00 0.00000e+00
0.00000e+00 0.00000e+00 0.00000e+00
0.00000e+00 0.00000e+00 0.00000e+00
0.00000e+00 0.00000e+00 0.00000e+00
0.00000e+00 0.00000e+00 0.00000e+00
0.00000e+00 0.00000e+00 0.00000e+00
0.00000e+00 0.00000e+00 0.00000e+00
0.00000e+00 0.00000e+00 0.00000e+00
0.00000e+00 0.00000e+00 0.00000e+00
0.00000e+00 0.00000e+00 0.00000e+00
0.00000e+00 0.00000e+00 0.00000e+00
VECTORS Disp_error float
0.00000e+00 0.00000e+00 0.00000e+00
0.00000e+00 0.00000e+00 0.00000e+00
0.00000e+00 0.00000e+00 0.00000e+00
0.00000e+00 0.00000e+00 0.00000e+00
0.00000e+00 0.00000e+00 0.00000e+00
0.00000e+00 0.00000e+00 0.00000e+00
0.00000e+00 0.00000e+00 0.00000e+00
0.00000e+00 0.00000e+00 0.00000e+00
0.00000e+00 0.00000e+00 0.00000e+00
0.00000e+00 0.00000e+00 0.00000e+00
0.00000e+00 0.00000e+00 0.00000e+00
0.00000e+00 0.00000e+00 0.00000e+00
0.00000e+00 0.00000e+00 0.00000e+00
0.00000e+00 0.00000e+00 0.00000e+00
0.00000e+00 0.00000e+00 0.00000e+00
0.00000e+00 0.00000e+00 0.00000e+00
0.00000e+00 0.00000e+00 0.00000e+00
0.00000e+00 0.00000e+00 0.00000e+00
0.00000e+00 0.00000e+00 0.00000e+00
0.00000e+00 0.00000e+00 0.00000e+00
0.00000e+00 0.00000e+00 0.00000e+00
0.00000e+00 0.00000e+00 0.00000e+00
9.29628e-15 3.56715e-15 4.18574e-06
5.35426e-15 1.20973e-14 6.19300e-06
2.72496e-15 1.23687e-16 5.89603e-06
1.25362e-14 2.50522e-14 5.39713e-06
1.44545e-14 2.61044e-14 1.91689e-06
5.16074e-15 8.11329e-15 7.74371e-06
3.22098e-15 7.81279e-15 6.89796e-06
1.59825e-14 3.76075e-15 4.54509e-06
6.96843e-15 8.04754e-15 1.18734e-05
1.90579e-14 3.26775e-15 1.11612e-05
9.86644e-16 6.86927e-15 1.07421e-05
1.69991e-14 1.89485e-15 4.32599e-06
5.79564e-16 1.90775e-14 6.08317e-06
2.54595e-15 1.64209e-14 1.07612e-05
3.40957e-15 4.62695e-16 1.15188e-05
3.25680e-16 4.99423e-15 4.46499e-06
2.57610e-14 3.37967e-15 2.13442e-06
2.85929e-14 1.57114e-14 3.29356e-06
1.48136e-15 1.34289e-14 4.05613e-07
0.00000e+00 0.00000e+00 0.00000e+00
0.00000e+00 0.00000e+00 0.00000e+00
1.12898e-14 1.24017e-14 6.53241e-06
8.21772e-15 2.81707e-15 1.47906e-06
7.91391e-15 6.92120e-15 4.55952e-06
9.34825e-15 8.42137e-15 1.37370e-07
5.30285e-15 6.03350e-15 2.79173e-05
1.29865e-14 3.18627e-15 4.30713e-05
2.18350e-14 1.34171e-14 3.68501e-05
1.21210e-14 7.63644e-15 2.21073e-05
2.50177e-14 3.45925e-15 8.74884e-06
1.84046e-14 1.04981e-14 5.33555e-06
1.01585e-14 3.72680e-16 1.05724e-05
1.77073e-15 9.88428e-15 2.95383e-05
2.15936e-14 6.87999e-15 4.16460e-05
1.53338e-14 1.16096e-15 4.27668e-05
3.30705e-16 1.38338e-14 3.26140e-05
3.81492e-14 2.63129e-14 2.30714e-05
1.75965e-15 7.20638e-15 1.31805e-06
3.25858e-14 2.89735e-15 5.48165e-06
1.60982e-14 1.18490e-14 8.98319e-06
0.00000e+00 0.00000e+00 0.00000e+00
0.00000e+00 0.00000e+00 0.00000e+00
2.86856e-15 1.69337e-14 9.08790e-06
3.34411e-15 2.09401e-14 1.12331e-05
1.24584e-14 1.37009e-14 1.34003e-05
1.64050e-14 1.11623e-14 1.35400e-05
2.16036e-14 3.43158e-15 2.87909e-05
1.07371e-14 1.54993e-14 5.65071e-05
8.24771e-15 1.76199e-14 6.37220e-05
7.52980e-16 6.86381e-15 5.20879e-05
9.52659e-15 2.22554e-14 4.83636e-05
1.10661e-14 7.40630e-15 4.83822e-05
1.02829e-14 5.93908e-15 5.20153e-05
3.05474e-15 5.48534e-15 5.85672e-05
3.57312e-15 1.92181e-14 6.01085e-05
8.78488e-15 2.61338e-14 4.11691e-05
4.68950e-15 2.61829e-14 2.80347e-05
2.15067e-14 3.46562e-15 9.05199e-06
2.07600e-14 1.45219e-14 1.77040e-05
2.05252e-16 1.58656e-14 6.27688e-06
1.64039e-14 2.60413e-14 6.72066e-07
0.00000e+00 0.00000e+00 0.00000e+00
0.00000e+00 0.00000e+00 0.00000e+00
6.27685e-15 9.89418e-15 4.62669e-06
5.31349e-15 7.40831e-15 3.53297e-06
2.31743e-15 9.44763e-15 9.76212e-06
1.41296e-14 1.54427e-14 9.50880e-06
2.44406e-14 2.96000e-16 5.70901e-06
5.28440e-15 1.46250e-14 1.64304e-05
5.75593e-15 5.89673e-15 4.50760e-05
8.61454e-15 4.36256e-15 5.11520e-05
1.77490e-14 2.58926e-14 4.51263e-05
1.08941e-14 2.66232e-15 4.00487e-05
1.26315e-14 2.20830e-15 3.38927e-05
8.25087e-15 2.46835e-14 3.94527e-05
1.45583e-14 8.65307e-15 2.68258e-05
6.26120e-15 1.21082e-14 1.24741e-05
4.92344e-14 2.16926e-15 9.23779e-06
5.53496e-15 1.61967e-14 1.81478e-05
1.96948e-14 2.41346e-14 4.05591e-07
2.84004e-14 2.73306e-14 1.07726e-05
2.72951e-14 1.40145e-15 2.26730e-06
0.00000e+00 0.00000e+00 0.00000e+00
0.00000e+00 0.00000e+00 0.00000e+00
6.43328e-15 1.49939e-14 2.52039e-07
4.71773e-15 3.84412e-15 1.86805e-05
2.21943e-14 7.05830e-15 2.25063e-05
1.09703e-14 8.35883e-15 2.75392e-06
1.25950e-14 8.48039e-16 2.07853e-05
1.87819e-14 1.05123e-14 5.50039e-06
2.44834e-15 4.42354e-15 3.00016e-05
3.11382e-14 6.83390e-15 3.90839e-05
2.34052e-14 2.28727e-15 3.45744e-05
1.43453e-14 1.26004e-15 3.37958e-05
2.19231e-14 2.89696e-16 2.26945e-05
9.08011e-15 2.06045e-14 1.17738e-05
2.30805e-14 1.03480e-14 1.36532e-05
3.87099e-14 3.15317e-16 8.17515e-06
1.38888e-14 1.13444e-14 2.18954e-05
2.48712e-14 3.36711e-14 3.35770e-05
3.65020e-15 1.67716e-14 8.12206e-06
3.82357e-15 6.95103e-15 8.59192e-06
1.74257e-14 1.47494e-14 2.97395e-06
0.00000e+00 0.00000e+00 0.00000e+00
0.00000e+00 0.00000e+00 0.00000e+00
1.39824e-14 9.00217e-15 1.38022e-06
1.06499e-15 9.41754e-15 2.30884e-05
1.76440e-14 2.97326e-14 3.48194e-05
1.83912e-14 7.49024e-15 9.62615e-06
1.35818e-14 1.89048e-14 3.19257e-06
1.24168e-14 7.68977e-15 1.22227e-05
4.78316e-15 3.60620e-15 3.72045e-05
2.05758e-15 1.10006e-14 4.79557e-05
1.83931e-14 2.50665e-14 4.11943e-05
4.18164e-15 6.16467e-15 3.57330e-05
6.18995e-15 1.55240e-14 3.53903e-05
1.45194e-14 1.51413e-14 2.83942e-05
4.91019e-15 1.76591e-15 3.90150e-05
4.09219e-14 1.87974e-14 3.19406e-05
2.10103e-14 1.51772e-14 1.33812e-05
3.18137e-14 1.35781e-14 2.47154e-05
2.34951e-15 1.34831e-14 1.00750e-05
1.36909e-14 1.59947e-14 2.21380e-05
1.41264e-14 9.88263e-15 3.34112e-08
0.00000e+00 0.00000e+00 0.00000e+00
0.00000e+00 0.00000e+00 0.00000e+00
5.16752e-15 2.14298e-15 2.82237e-06
1.21585e-14 6.09048e-15 2.34800e-05
1.48859e-14 1.42218e-14 4.48469e-05
2.11678e-14 8.45006e-15 1.67023e-05
6.29710e-15 1.67618e-15 5.00493e-06
1.30895e-15 1.97598e-14 3.27602e-05
1.82652e-14 1.03529e-14 7.57091e-05
1.73685e-14 1.37560e-14 8.04104e-05
1.21779e-15 1.12113e-14 5.76228e-05
1.36130e-14 1.32418e-15 5.01052e-05
3.54190e-14 8.59055e-15 5.02840e-05
1.37384e-14 1.40659e-14 6.93388e-05
3.04426e-14 1.75640e-14 8.01645e-05
1.79925e-15 1.95084e-14 5.27315e-05
5.78858e-15 6.91490e-15 1.57785e-05
1.61519e-14 9.74099e-15 9.02265e-06
3.27459e-14 1.14759e-14 4.16376e-05
2.13486e-14 5.60582e-15 2.71723e-05
2.30700e-15 3.77409e-15 1.63785e-06
0.00000e+00 0.00000e+00 0.00000e+00
0.00000e+00 0.00000e+00 0.00000e+00
1.46662e-16 1.79647e-14 3.69037e-06
2.09411e-15 1.34359e-14 2.72780e-05
7.21073e-15 1.55166e-14 4.91263e-05
8.57456e-15 1.21387e-14 2.44472e-05
1.03812e-14 5.68003e-15 9.81987e-06
1.27090e-14 7.89791e-15 3.78788e-05
1.77187e-15 1.61162e-14 8.41543e-05
5.66429e-15 2.89858e-14 1.05567e-04
2.89576e-14 3.61269e-14 7.45542e-05
5.73033e-15 1.32168e-14 5.16027e-05
9.34378e-15 1.37395e-14 7.63126e-05
1.54225e-14 5.87008e-14 9.82508e-05
1.81629e-14 3.86169e-14 9.60007e-05
2.60767e-14 1.07691e-14 6.82026e-05
3.30025e-14 2.28314e-14 4.04436e-05
4.48557e-15 2.33306e-14 3.82289e-05
1.28672e-14 1.46553e-14 5.27715e-05
4.17322e-15 3.69249e-14 2.69515e-05
7.67356e-15 1.05107e-14 5.24661e-06
0.00000e+00 0.00000e+00 0.00000e+00
0.00000e+00 0.00000e+00 0.00000e+00
6.25670e-15 1.30197e-14 5.02053e-06
1.68086e-14 2.30135e-14 2.46745e-05
5.77388e-15 9.17781e-15 5.01042e-05
2.58455e-15 9.99784e-15 3.24994e-05
1.11511e-14 9.77488e-15 2.53879e-05
1.50741e-14 4.67413e-15 4.08217e-05
8.22966e-15 1.75311e-15 7.09295e-05
3.49887e-15 1.96303e-15 9.07294e-05
4.57329e-14 2.45207e-15 7.47554e-05
1.11074e-14 2.60501e-15 7.17081e-05
2.63615e-14 7.20442e-15 8.61958e-05
2.52850e-14 1.62897e-14 8.73543e-05
3.33546e-15 1.61668e-14 7.39470e-05
9.33272e-15 1.81675e-17 6.60382e-05
6.25128e-15 1.93590e-14 5.20311e-05
2.81029e-14 8.16454e-15 5.13401e-05
2.60287e-14 1.35394e-14 6.40890e-05
1.03290e-14 2.12134e-14 2.30391e-05
6.10545e-15 6.66967e-15 5.67129e-06
0.00000e+00 0.00000e+00 0.00000e+00
0.00000e+00 0.00000e+00 0.00000e+00
1.18322e-14 1.11861e-15 1.44658e-06
6.96139e-15 1.44974e-14 2.21934e-05
6.31134e-15 4.65494e-15 4.83803e-05
3.83476e-15 7.15135e-15 2.94670e-05
3.42107e-15 8.91481e-15 2.84612e-05
1.11220e-14 1.42291e-14 4.88721e-05
3.83046e-15 1.27126e-16 7.84472e-05
2.57199e-14 2.51472e-14 6.49653e-05
4.34880e-14 1.89094e-14 5.88968e-05
1.21477e-14 1.11428e-14 7.70055e-05
3.11789e-14 7.53105e-15 7.60965e-05
3.85657e-14 7.19177e-15 5.59241e-05
9.84913e-15 3.97116e-16 6.39036e-05
3.23967e-15 3.41432e-15 6.26892e-05
1.23590e-14 4.33996e-15 5.94221e-05
1.92717e-14 5.44721e-15 6.78040e-05
9.61111e-15 4.17251e-15 7.36825e-05
1.07712e-14 1.24669e-14 2.56160e-05
7.71519e-15 2.04239e-15 1.09891e-05
0.00000e+00 0.00000e+00 0.00000e+00
0.00000e+00 0.00000e+00 0.00000e+00
8.27543e-15 3.25496e-14 4.48315e-06
4.72252e-15 8.78014e-15 2.16486e-05
8.48196e-16 2.63512e-14 4.85200e-05
5.48554e-15 1.20370e-14 2.05431e-05
6.92090e-15 1.35397e-14 2.18004e-05
1.65413e-14 1.33406e-14 6.27935e-05
4.30376e-14 6.02203e-15 8.40388e-05
2.79348e-14 1.11606e-14 8.36998e-05
3.96761e-14 1.23057e-14 5.38044e-05
8.37259e-17 9.35459e-15 5.45196e-05
2.06356e-14 6.88647e-15 6.03087e-05
9.01612e-15 1.74718e-14 7.97957e-05
7.00361e-15 3.49329e-15 7.75196e-05
1.59400e-14 2.59962e-14 6.27562e-05
3.50062e-15 1.08514e-14 4.82984e-05
7.61025e-16 2.52630e-15 5.23366e-05
1.10012e-14 1.13508e-14 6.69928e-05
3.06786e-14 3.70182e-15 2.43494e-05
2.13881e-14 3.21427e-15 1.19067e-05
0.00000e+00 0.00000e+00 0.00000e+00
0.00000e+00 0.00000e+00 0.00000e+00
2.66272e-15 4.28893e-15 5.41378e-06
4.58003e-14 7.74227e-15 1.68863e-05
5.25921e-14 8.07681e-15 3.34047e-05
5.29295e-15 1.28155e-14 1.72239e-05
2.84019e-14 1.87874e-14 2.59709e-05
3.22623e-15 1.43574e-14 5.41881e-05
4.36140e-14 1.32591e-14 9.74126e-05
2.23657e-14 1.02394e-14 1.04479e-04
2.66976e-14 6.21091e-15 9.12920e-05
1.08803e-14 2.37340e-15 5.41955e-05
1.02890e-14 1.62440e-15 7.71880e-05
5.12630e-15 1.28316e-15 1.06025e-04
3.14192e-14 2.43096e-14 9.42349e-05
2.19632e-14 1.45606e-14 5.29960e-05
2.61181e-14 1.93248e-15 2.42870e-05
2.32247e-14 1.27513e-14 3.63123e-05
2.30236e-15 2.38747e-14 6.06915e-05
1.09795e-14 7.35003e-16 2.27448e-05
2.35010e-14 3.92181e-16 1.20190e-05
0.00000e+00 0.00000e+00 0.00000e+00
0.00000e+00 0.00000e+00 0.00000e+00
3.71497e-15 1.66763e-14 1.66695e-06
1.10152e-14 5.09974e-15 1.65063e-05
2.83750e-15 1.15595e-15 3.91528e-05
2.05406e-14 1.97663e-15 1.70879e-05
3.71808e-14 7.74564e-15 1.52420e-05
1.19444e-14 1.09725e-14 4.24683e-05
2.44320e-14 1.32921e-15 7.49417e-05
3.18543e-14 9.12405e-15 1.07154e-04
2.69822e-15 2.09647e-14 9.03234e-05
2.80812e-15 1.18525e-14 8.19527e-05
2.67290e-15 9.21750e-17 9.08077e-05
1.74860e-14 7.43524e-15 1.17071e-04
7.47156e-15 1.77750e-15 9.27411e-05
9.05677e-15 1.22387e-14 3.58373e-05
2.17720e-14 3.00462e-15 7.65547e-06
1.82396e-15 1.62708e-14 3.26261e-05
3.21249e-16 8.99463e-16 7.09798e-05
1.38289e-14 3.21558e-15 3.66857e-05
5.86890e-15 1.96373e-14 2.22679e-06
0.00000e+00 0.00000e+00 0.00000e+00
0.00000e+00 0.00000e+00 0.00000e+00
1.09606e-15 4.79203e-15 2.12446e-06
1.54779e-15 1.01502e-14 3.78024e-05
1.57629e-14 5.92236e-15 4.75487e-05
1.42875e-14 6.48185e-16 1.70078e-05
2.03511e-14 4.97958e-15 2.88524e-06
1.29156e-14 7.24725e-15 9.95770e-06
3.38841e-15 1.01793e-14 4.65289e-05
7.16344e-15 1.88167e-14 5.17555e-05
1.87730e-14 9.04224e-15 6.09122e-05
1.91974e-14 2.10914e-14 5.72503e-05
5.95108e-16 4.81739e-15 7.37980e-05
5.78716e-15 5.22785e-15 8.66279e-05
2.02788e-15 9.70156e-15 6.90110e-05
3.14911e-15 2.64442e-15 2.93348e-05
2.32769e-14 1.32748e-14 1.12131e-05
2.48321e-14 3.57993e-15 1.76299e-05
2.21490e-14 2.63330e-15 7.25789e-05
1.67441e-14 4.06901e-16 5.34528e-05
6.33655e-16 8.96622e-15 6.48783e-06
0.00000e+00 0.00000e+00 0.00000e+00
0.00000e+00 0.00000e+00 0.00000e+00
9.51093e-15 3.13651e-15 9.16317e-06
4.48541e-14 2.28006e-15 2.86778e-05
5.77799e-15 7.92042e-15 3.77148e-05
1.04911e-14 3.60889e-15 6.05639e-06
9.93931e-16 1.09259e-14 1.10250e-05
7.25247e-15 2.32833e-14 7.07805e-06
6.36533e-15 1.14699e-14 1.06264e-05
4.60182e-17 3.41056e-14 1.86339e-05
3.89601e-15 4.62966e-15 2.21543e-05
1.05677e-14 7.28318e-15 3.32296e-05
3.54414e-15 1.29878e-14 3.58596e-05
2.00965e-14 4.24279e-15 4.90602e-05
5.41516e-15 2.38218e-14 4.00878e-05
1.20323e-14 1.13466e-14 1.81161e-05
1.48710e-14 1.64990e-14 1.58530e-05
2.00291e-14 1.50764e-15 2.86475e-06
9.24312e-16 7.23192e-15 4.74323e-05
9.58249e-15 1.06680e-14 3.51109e-05
7.70773e-15 1.83313e-14 4.50294e-06
0.00000e+00 0.00000e+00 0.00000e+00
0.00000e+00 0.00000e+00 0.00000e+00
2.87528e-15 2.93153e-15 1.01398e-06
1.02922e-14 5.13093e-15 1.15212e-05
8.73327e-15 7.17408e-15 1.24034e-05
1.67266e-14 1.11291e-15 8.85781e-06
7.50262e-15 8.15138e-15 1.73869e-05
2.42227e-14 2.04828e-14 1.69016e-05
1.22280e-14 7.51853e-15 2.34079e-05
2.49677e-14 2.32084e-14 2.13664e-05
1.87283e-14 4.91725e-15 4.00078e-05
8.75397e-15 8.46493e-15 4.01232e-05
9.17529e-15 2.02762e-14 3.88585e-05
3.28236e-15 1.62053e-14 3.99072e-05
1.28274e-14 2.76169e-14 3.33320e-05
1.69890e-14 2.19429e-14 1.01645e-05
1.39397e-14 8.78942e-15 7.17118e-08
3.03372e-14 1.33885e-14 4.55882e-06
1.81538e-14 1.31557e-15 1.49384e-05
1.88424e-16 1.54850e-15 5.79725e-06
6.94665e-15 1.01337e-14 8.70530e-06
0.00000e+00 0.00000e+00 0.00000e+00
0.00000e+00 0.00000e+00 0.00000e+00
2.29111e-14 7.10044e-16 8.28860e-06
1.31157e-14 1.35722e-14 6.24685e-06
2.45785e-14 8.45624e-15 1.20522e-05
1.28235e-15 2.19706e-14 2.39322e-05
1.79584e-14 1.65010e-14 3.95505e-05
2.12221e-14 1.61566e-14 4.97876e-05
1.74650e-14 5.97263e-15 4.66499e-05
9.94271e-15 1.21896e-14 5.88670e-05
1.72054e-14 6.10804e-15 6.84280e-05
7.84425e-15 4.97470e-15 7.51428e-05
2.78111e-15 1.51682e-14 6.58473e-05
1.88957e-14 1.30656e-14 5.69737e-05
6.06653e-15 5.08226e-15 4.73373e-05
1.19406e-14 1.13996e-14 2.95136e-05
1.38913e-14 1.85468e-14 2.22577e-05
1.78156e-14 9.12173e-15 1.62092e-05
2.45153e-14 6.60921e-15 2.14470e-05
9.25820e-15 7.35520e-15 9.89949e-06
4.40785e-15 1.12461e-14 1.10551e-05
0.00000e+00 0.00000e+00 0.00000e+00
0.00000e+00 0.00000e+00 0.00000e+00
2.08637e-14 1.39352e-14 7.33603e-06
2.24272e-14 1.00067e-14 2.07964e-06
4.94746e-15 1.64495e-14 1.61817e-07
1.18903e-15 1.45938e-14 6.41681e-07
1.13964e-14 3.51174e-14 1.40676e-05
1.34480e-14 4.61575e-15 2.82731e-05
1.85356e-14 1.13804e-14 3.22904e-05
1.97773e-14 7.35034e-15 3.27388e-05
1.17383e-14 6.05058e-15 3.78871e-05
2.11718e-15 1.17065e-14 4.60995e-05
7.77776e-15 8.66322e-15 4.41764e-05
1.48761e-15 2.74170e-14 3.15141e-05
1.42652e-14 1.64241e-14 2.57017e-05
2.04277e-15 7.84307e-15 1.42059e-05
1.84147e-14 7.64697e-15 4.92204e-07
5.65340e-15 1.41902e-14 1.73482e-06
1.25746e-14 8.71114e-15 2.52854e-07
1.19009e-14 1.74535e-14 4.47826e-06
5.28441e-15 1.06529e-14 1.10701e-05
0.00000e+00 0.00000e+00 0.00000e+00
0.00000e+00 0.00000e+00 0.00000e+00
7.41212e-15 2.22456e-15 3.94724e-06
1.85548e-14 1.26513e-14 9.55211e-06
2.38390e-15 1.30669e-14 9.18424e-06
5.46597e-16 3.93431e-14 8.69622e-06
2.40673e-15 1.09064e-14 6.08177e-06
2.63337e-14 1.68742e-14 5.41331e-07
3.83621e-15 1.28581e-14 6.84406e-07
1.88383e-14 8.94803e-15 2.56114e-07
1.09194e-14 2.06935e-14 3.74718e-06
1.72416e-14 1.61359e-15 1.45007e-06
3.00268e-15 2.84787e-15 3.65241e-06
2.31809e-14 1.77881e-14 1.00792e-06
1.86385e-14 1.57265e-14 5.18514e-07
4.94710e-15 8.93485e-15 5.85092e-06
6.56591e-15 1.46109e-14 8.00507e-06
5.56083e-15 5.81035e-15 1.45691e-05
8.26173e-16 1.64440e-14 5.05615e-06
9.56282e-15 2.89324e-14 1.94811e-05
7.61448e-16 1.78985e-14 5.34349e-06
0.00000e+00 0.00000e+00 0.00000e+00
0.00000e+00 0.00000e+00 0.00000e+00
0.00000e+00 0.00000e+00 0.00000e+00
0.00000e+00 0.00000e+00 0.00000e+00
0.00000e+00 0.00000e+00 0.00000e+00
0.00000e+00 0.00000e+00 0.00000e+00
0.00000e+00 0.00000e+00 0.00000e+00
0.00000e+00 0.00000e+00 0.00000e+00
0.00000e+00 0.00000e+00 0.00000e+00
0.00000e+00 0.00000e+00 0.00000e+00
0.00000e+00 0.00000e+00 0.00000e+00
0.00000e+00 0.00000e+00 0.00000e+00
0.00000e+00 0.00000e+00 0.00000e+00
0.00000e+00 0.00000e+00 0.00000e+00
0.00000e+00 0.00000e+00 0.00000e+00
0.00000e+00 0.00000e+00 0.00000e+00
0.00000e+00 0.00000e+00 0.00000e+00
0.00000e+00 0.00000e+00 0.00000e+00
0.00000e+00 0.00000e+00 0.00000e+00
0.00000e+00 0.00000e+00 0.00000e+00
0.00000e+00 0.00000e+00 0.00000e+00
0.00000e+00 0.00000e+00 0.00000e+00
VECTORS angDisp_error float
0.00000e+00 0.00000e+00 0.00000e+00
0.00000e+00 0.00000e+00 0.00000e+00
0.00000e+00 0.00000e+00 0.00000e+00
0.00000e+00 0.00000e+00 0.00000e+00
0.00000e+00 0.00000e+00 0.00000e+00
0.00000e+00 0.00000e+00 0.00000e+00
0.00000e+00 0.00000e+00 0.00000e+00
0.00000e+00 0.00000e+00 0.00000e+00
0.00000e+00 0.00000e+00 0.00000e+00
0.00000e+00 0.00000e+00 0.00000e+00
0.00000e+00 0.00000e+00 0.00000e+00
0.00000e+00 0.00000e+00 0.00000e+00
0.00000e+00 0.00000e+00 0.00000e+00
0.00000e+00 0.00000e+00 0.00000e+00
0.00000e+00 0.00000e+00 0.00000e+00
0.00000e+00 0.00000e+00 0.00000e+00
0.00000e+00 0.00000e+00 0.00000e+00
0.00000e+00 0.00000e+00 0.00000e+00
0.00000e+00 0.00000e+00 0.00000e+00
0.00000e+00 0.00000e+00 0.00000e+00
0.00000e+00 0.00000e+00 0.00000e+00
0.00000e+00 0.00000e+00 0.00000e+00
4.21131e-04 3.67051e-04 7.29611e-11
8.95709e-05 2.54167e-04 6.27912e-11
4.02467e-04 1.51664e-04 5.24387e-11
1.54745e-04 2.67114e-04 4.47265e-11
1.88205e-04 3.16306e-04 3.83919e-11
2.05815e-04 1.13138e-04 3.25554e-11
2.51710e-04 2.48817e-05 2.84407e-11
2.38255e-04 3.45760e-04 2.51853e-11
3.04580e-04 4.23694e-05 2.44142e-11
5.62221e-04 1.87910e-05 2.41134e-11
4.20101e-04 4.97913e-05 2.37884e-11
2.19680e-04 9.02403e-05 2.34217e-11
3.60712e-04 1.45255e-04 2.20145e-11
4.86329e-04 6.53416e-05 2.20433e-11
2.55581e-04 9.84957e-05 2.19451e-11
4.71693e-04 1.91238e-05 2.25042e-11
1.62153e-04 1.23505e-04 2.53245e-11
7.17212e-06 1.03599e-04 2.69081e-11
1.07200e-04 2.28856e-04 3.03998e-11
0.00000e+00 0.00000e+00 0.00000e+00
0.00000e+00 0.00000e+00 0.00000e+00
5.36215e-04 9.61125e-07 7.13973e-11
3.22737e-04 2.82932e-04 6.47328e-11
7.84818e-04 1.01186e-04 5.49165e-11
5.01022e-04 4.89708e-05 4.54196e-11
8.46282e-04 3.33035e-04 3.84908e-11
9.19707e-04 1.05208e-04 3.14905e-11
1.44011e-03 4.08262e-04 2.62049e-11
8.55610e-04 4.01465e-04 2.18595e-11
1.49882e-03 7.53556e-05 2.01481e-11
1.28341e-03 4.22078e-05 1.96409e-11
1.42044e-03 2.44215e-04 1.93028e-11
1.54695e-03 4.60137e-04 1.88974e-11
1.00604e-03 1.79534e-04 1.85596e-11
7.58447e-04 7.92351e-05 1.94543e-11
5.72249e-04 3.52947e-04 2.01214e-11
1.02334e-04 2.30754e-04 2.25866e-11
5.83176e-04 3.50719e-04 2.42950e-11
2.32866e-04 5.62251e-04 2.71194e-11
1.53123e-04 1.43809e-04 3.27950e-11
0.00000e+00 0.00000e+00 0.00000e+00
0.00000e+00 0.00000e+00 0.00000e+00
2.05720e-05 3.03414e-04 6.79897e-11
1.60683e-04 5.55616e-04 6.18308e-11
1.81012e-05 1.40138e-04 5.51655e-11
4.01266e-04 3.99526e-04 4.58468e-11
7.06524e-04 6.29261e-04 3.70186e-11
4.34309e-04 4.34414e-04 3.01339e-11
1.20148e-04 1.35450e-04 2.34418e-11
1.29104e-04 1.50790e-04 1.82774e-11
2.46644e-04 1.77594e-05 1.56398e-11
4.91738e-07 5.51821e-05 1.49354e-11
6.53714e-05 1.06166e-04 1.46299e-11
1.02937e-04 4.60561e-04 1.43747e-11
5.33462e-04 4.27509e-04 1.55884e-11
4.72426e-04 3.04185e-04 1.69596e-11
9.43251e-04 1.87002e-04 1.91800e-11
6.13093e-04 6.37528e-04 2.12220e-11
9.56580e-05 4.13608e-04 2.36488e-11
1.23618e-04 6.02964e-04 2.88461e-11
1.59108e-04 1.64472e-04 3.35672e-11
0.00000e+00 0.00000e+00 0.00000e+00
0.00000e+00 0.00000e+00 0.00000e+00
2.45844e-04 1.01108e-04 6.20642e-11
4.56046e-04 2.76029e-04 5.73414e-11
1.92996e-04 1.22756e-04 5.10617e-11
4.11369e-04 4.26553e-04 4.43327e-11
7.06062e-04 4.13828e-04 3.54473e-11
9.47759e-04 7.92529e-04 2.74733e-11
5.55679e-04 4.80689e-04 2.01823e-11
3.46676e-04 2.34682e-04 1.46888e-11
2.08899e-04 3.81209e-05 1.09747e-11
4.03970e-04 2.47084e-04 1.01265e-11
3.75599e-04 1.07577e-04 9.92724e-12
9.29102e-04 9.43244e-06 1.03143e-11
5.79715e-04 5.24588e-04 1.23400e-11
6.72281e-04 9.02861e-05 1.46049e-11
4.80190e-04 8.06853e-04 1.73833e-11
5.51537e-04 6.83576e-04 1.97594e-11
2.33594e-04 2.33613e-04 2.46784e-11
3.29878e-04 2.05338e-05 2.89931e-11
1.62798e-04 8.99620e-05 3.21470e-11
0.00000e+00 0.00000e+00 0.00000e+00
0.00000e+00 0.00000e+00 0.00000e+00
5.66496e-05 6.80983e-06 5.47888e-11
6.46580e-05 7.60585e-04 5.03688e-11
5.32251e-04 4.10944e-04 4.56612e-11
3.85262e-04 6.43633e-04 3.93027e-11
9.16347e-05 3.57173e-04 3.25342e-11
1.42112e-04 7.24539e-04 2.40500e-11
2.13414e-04 6.85945e-04 1.69540e-11
1.72198e-04 4.46297e-04 1.06001e-11
4.33773e-05 8.34465e-05 6.37447e-12
8.35955e-05 2.33957e-04 5.48046e-12
1.78665e-04 5.19734e-05 5.45402e-12
5.03272e-04 4.28401e-04 6.66630e-12
3.07932e-04 3.56443e-04 9.38049e-12
3.09557e-04 6.37189e-04 1.25649e-11
1.01887e-04 3.96468e-04 1.51575e-11
5.29885e-05 1.02662e-04 2.00229e-11
1.15778e-04 9.86405e-04 2.41876e-11
9.73623e-05 1.31659e-04 2.70931e-11
5.12479e-05 3.29550e-04 2.92951e-11
0.00000e+00 0.00000e+00 0.00000e+00
0.00000e+00 0.00000e+00 0.00000e+00
1.57340e-04 9.22382e-06 4.73342e-11
1.31397e-04 8.67151e-04 4.29992e-11
1.51236e-04 4.36440e-04 3.82426e-11
2.24855e-04 6.59302e-04 3.30049e-11
4.47795e-04 2.28226e-04 2.70825e-11
6.77481e-04 2.57246e-04 2.05523e-11
6.17445e-04 5.99764e-04 1.30066e-11
4.57302e-04 9.65446e-05 6.75383e-12
3.36275e-04 2.75951e-05 2.47325e-12
2.27019e-04 2.81002e-05 1.40056e-12
4.69193e-04 5.03045e-05 1.48354e-12
8.14989e-04 1.19969e-04 3.71950e-12
1.00603e-03 5.05969e-04 6.83139e-12
5.54785e-04 8.08440e-04 9.79342e-12
1.75647e-04 1.11619e-03 1.45123e-11
5.00198e-04 5.30243e-04 1.88020e-11
9.18049e-04 9.95398e-04 2.19742e-11
4.05237e-05 7.84136e-04 2.39132e-11
1.83854e-04 1.14739e-05 2.49232e-11
0.00000e+00 0.00000e+00 0.00000e+00
0.00000e+00 0.00000e+00 0.00000e+00
7.41319e-05 3.61726e-05 4.09727e-11
2.76249e-05 1.04306e-03 3.58368e-11
3.86463e-04 3.34993e-04 3.11452e-11
1.31197e-04 6.63340e-04 2.60662e-11
2.10993e-04 7.86185e-05 2.07454e-11
1.88619e-04 1.45592e-03 1.54870e-11
9.03808e-04 4.65624e-04 9.86294e-12
6.66521e-04 3.97868e-04 3.99331e-12
5.44906e-04 6.31917e-04 2.40978e-13
4.91664e-05 1.41312e-04 1.60142e-12
2.77206e-04 3.02121e-06 1.19408e-12
7.44201e-04 5.49354e-04 1.38275e-12
8.06615e-04 2.93612e-04 4.26313e-12
2.53722e-04 9.34996e-04 8.78672e-12
7.20710e-04 4.53144e-04 1.28966e-11
9.86245e-04 3.73110e-04 1.60722e-11
6.53792e-04 8.09178e-04 1.83794e-11
1.74141e-04 1.04828e-03 2.03222e-11
1.79303e-05 1.22115e-05 2.11640e-11
0.00000e+00 0.00000e+00 0.00000e+00
0.00000e+00 0.00000e+00 0.00000e+00
5.98673e-05 1.76452e-04 3.54793e-11
2.29366e-04 1.23337e-03 3.07631e-11
9.70773e-05 3.19511e-04 2.54874e-11
1.74802e-04 6.38306e-04 2.01031e-11
3.11479e-04 2.72974e-04 1.47690e-11
4.88348e-05 4.82515e-04 1.00750e-11
3.84338e-04 1.37676e-03 5.94304e-12
2.13131e-04 2.41160e-04 2.35390e-12
2.49349e-04 9.62131e-04 1.53561e-12
8.58530e-05 2.03417e-04 3.00685e-12
8.36633e-04 5.06058e-04 2.24202e-12
3.09259e-04 3.41177e-04 1.12059e-13
6.14151e-05 2.72065e-04 3.65026e-12
3.26000e-04 5.75617e-04 7.11065e-12
1.02136e-04 5.27784e-04 1.01263e-11
1.83348e-04 4.62979e-05 1.25584e-11
5.83772e-05 2.59206e-04 1.43775e-11
2.44403e-04 1.39204e-03 1.56519e-11
8.56605e-05 1.35899e-04 1.63782e-11
0.00000e+00 0.00000e+00 0.00000e+00
0.00000e+00 0.00000e+00 0.00000e+00
7.18946e-05 6.31958e-05 3.10461e-11
8.26120e-05 1.30494e-03 2.59616e-11
1.51761e-04 2.50086e-04 2.07488e-11
9.85991e-05 4.51505e-04 1.55159e-11
1.80071e-04 1.36003e-04 1.05341e-11
2.50582e-04 5.52788e-04 6.25320e-12
2.31344e-04 4.98056e-04 2.70065e-12
5.79111e-04 9.38028e-05 4.29121e-13
5.03566e-04 5.71609e-04 7.57502e-13
1.10707e-03 2.63987e-04 2.47298e-12
5.34922e-04 5.56927e-04 1.82532e-12
8.26869e-04 4.02935e-04 4.85408e-13
8.90817e-04 2.86840e-04 2.76593e-12
3.39814e-04 3.63246e-04 4.84191e-12
1.97774e-04 1.28299e-05 7.10496e-12
5.45142e-04 4.07070e-04 9.20243e-12
3.80735e-04 2.48477e-04 1.10297e-11
1.11690e-04 1.69635e-03 1.24758e-11
2.72858e-05 2.80045e-04 1.32469e-11
0.00000e+00 0.00000e+00 0.00000e+00
0.00000e+00 0.00000e+00 0.00000e+00
8.69242e-05 1.69143e-04 2.78348e-11
1.03549e-04 1.22537e-03 2.26359e-11
1.46482e-04 2.81796e-04 1.73632e-11
2.33193e-04 4.07338e-04 1.22004e-11
7.64827e-05 2.53364e-04 7.44538e-12
1.87852e-04 7.09713e-04 3.46620e-12
2.70598e-04 3.79592e-04 6.11422e-13
1.15543e-05 4.70102e-04 8.95896e-13
8.04657e-04 2.04608e-04 1.03509e-12
9.88328e-05 7.26178e-04 4.45631e-33
6.30691e-04 1.01693e-03 6.17772e-13
4.35305e-05 1.80267e-04 1.72325e-12
3.38204e-04 2.74673e-04 3.22100e-12
1.94647e-04 1.34140e-04 4.96465e-12
1.17942e-04 2.13817e-04 6.78072e-12
1.08624e-04 1.82644e-04 8.48777e-12
1.04638e-04 2.76417e-05 9.91016e-12
3.59344e-05 1.87859e-03 1.08865e-11
4.76045e-05 5.02460e-04 1.12754e-11
0.00000e+00 0.00000e+00 0.00000e+00
0.00000e+00 0.00000e+00 0.00000e+00
1.93981e-05 2.57343e-05 2.84092e-11
6.89225e-06 1.18797e-03 2.29473e-11
1.41393e-05 4.18559e-04 1.74048e-11
3.10168e-05 4.52548e-04 1.21034e-11
2.88710e-07 3.76448e-04 7.36428e-12
2.43206e-05 8.84846e-04 3.52200e-12
2.28483e-04 4.96492e-04 8.95220e-13
5.86443e-04 9.16518e-04 7.08200e-13
6.98552e-04 1.73513e-04 1.08367e-12
8.98540e-04 1.96834e-05 1.72402e-13
1.36532e-04 7.03696e-04 3.37667e-12
7.40439e-04 5.65499e-06 4.25840e-12
3.65663e-04 2.89597e-04 5.43223e-12
2.14020e-04 3.14638e-04 6.97771e-12
6.84848e-04 9.77367e-05 8.36522e-12
6.27338e-04 4.36813e-04 9.53453e-12
3.38444e-04 1.12340e-04 1.04674e-11
1.20301e-04 1.92125e-03 1.10856e-11
5.35947e-05 3.67083e-04 1.12337e-11
0.00000e+00 0.00000e+00 0.00000e+00
0.00000e+00 0.00000e+00 0.00000e+00
8.17920e-05 2.84255e-04 3.12878e-11
2.40962e-04 1.11711e-03 2.58104e-11
3.94398e-04 3.05280e-04 2.02090e-11
1.43990e-04 2.01747e-04 1.47381e-11
6.98492e-06 6.15835e-04 9.53796e-12
8.51788e-05 7.50884e-04 5.23238e-12
1.01581e-04 5.03764e-04 2.17951e-12
5.90548e-04 4.65438e-05 2.72565e-13
6.37621e-04 7.71064e-04 5.14828e-13
8.17873e-04 4.89920e-04 4.82290e-13
6.76900e-04 9.70863e-04 3.32309e-12
3.79540e-04 3.67053e-04 6.81716e-12
1.66506e-04 7.80202e-04 7.35155e-12
1.44094e-04 9.16705e-04 7.89681e-12
2.29657e-04 2.82779e-04 8.55675e-12
4.72292e-05 7.31558e-04 9.54776e-12
2.22512e-05 4.16949e-04 1.03732e-11
1.73091e-04 1.72165e-03 1.08772e-11
1.47219e-05 3.97161e-04 1.07670e-11
0.00000e+00 0.00000e+00 0.00000e+00
0.00000e+00 0.00000e+00 0.00000e+00
1.36779e-05 2.47523e-04 3.63310e-11
4.87525e-04 1.04109e-03 3.02373e-11
3.89738e-04 3.44142e-04 2.37899e-11
2.41026e-05 6.42926e-04 1.77500e-11
6.97374e-06 4.69223e-04 1.22884e-11
7.77498e-04 4.03322e-04 8.04648e-12
4.91790e-04 1.11414e-03 4.64321e-12
7.31930e-04 3.59565e-05 1.91333e-12
4.86158e-04 4.39156e-04 3.29810e-13
2.00182e-04 2.36604e-04 9.33390e-13
1.59279e-04 6.98276e-04 3.10131e-12
5.50896e-05 2.10553e-05 6.52254e-12
3.51310e-04 9.33565e-04 9.97596e-12
3.53910e-04 1.04658e-03 1.01863e-11
4.46469e-04 5.37932e-05 9.80866e-12
1.02006e-04 9.27448e-04 9.73944e-12
2.26768e-04 3.49939e-04 9.60632e-12
6.64053e-04 1.91255e-03 9.11335e-12
3.05805e-04 2.06605e-04 9.18637e-12
0.00000e+00 0.00000e+00 0.00000e+00
0.00000e+00 0.00000e+00 0.00000e+00
9.77158e-05 2.80902e-04 4.13615e-11
3.38247e-04 1.29338e-03 3.49724e-11
1.18874e-05 6.38835e-04 2.83766e-11
1.21117e-04 5.28410e-04 2.23052e-11
7.98531e-04 6.90892e-05 1.69265e-11
2.59012e-04 9.91777e-04 1.22837e-11
1.01776e-03 4.01191e-04 7.50793e-12
1.03670e-03 2.03326e-05 3.87763e-12
1.10503e-03 2.57207e-04 1.64774e-12
7.14168e-04 7.52808e-06 1.53298e-12
9.61185e-04 7.52466e-04 2.61636e-12
8.63418e-04 1.09054e-04 5.78721e-12
6.91451e-04 7.43151e-04 9.19262e-12
1.45853e-04 1.34988e-03 1.24132e-11
1.66938e-04 2.48529e-04 1.20298e-11
6.09800e-04 1.48945e-03 1.06678e-11
3.05150e-04 6.87219e-04 9.74082e-12
2.68875e-04 1.49151e-03 8.87986e-12
1.76652e-04 2.64116e-04 7.90155e-12
0.00000e+00 0.00000e+00 0.00000e+00
0.00000e+00 0.00000e+00 0.00000e+00
6.74813e-05 1.43908e-04 4.77655e-11
1.97748e-04 6.47925e-04 4.13098e-11
6.24970e-04 5.12339e-04 3.48290e-11
3.21567e-04 7.91155e-04 2.86854e-11
4.60103e-04 9.94802e-05 2.30810e-11
1.38134e-04 1.51329e-04 1.68208e-11
4.27365e-04 1.83858e-04 1.08976e-11
4.70728e-04 2.71872e-05 6.26367e-12
2.62931e-04 3.06798e-04 3.42398e-12
3.39180e-04 8.93600e-05 2.29439e-12
6.26445e-04 3.01447e-04 2.12166e-12
4.60163e-04 1.23966e-04 4.79604e-12
7.24122e-04 4.97252e-04 7.49765e-12
4.84519e-04 6.42791e-04 1.09939e-11
4.61571e-04 3.55668e-04 1.35999e-11
1.13577e-04 7.96042e-04 1.25368e-11
9.79271e-04 1.08991e-03 1.04109e-11
4.41724e-04 1.15357e-03 8.49049e-12
3.50991e-04 1.71773e-04 6.72682e-12
0.00000e+00 0.00000e+00 0.00000e+00
0.00000e+00 0.00000e+00 0.00000e+00
3.11465e-04 1.08968e-04 5.57199e-11
5.67485e-04 4.97460e-04 4.92820e-11
3.65246e-04 2.76141e-04 4.27629e-11
5.42268e-04 1.67489e-05 3.65570e-11
7.95081e-04 3.89665e-06 2.91003e-11
3.79771e-04 2.44666e-04 2.11107e-11
9.05290e-04 1.96543e-04 1.44738e-11
6.51285e-04 3.70383e-04 9.04696e-12
8.67307e-04 1.56306e-04 5.44575e-12
7.41884e-04 1.29563e-04 3.22021e-12
5.94869e-04 1.73813e-04 1.89826e-12
3.03492e-04 1.28105e-04 3.64173e-12
2.79859e-04 4.52086e-04 5.67034e-12
4.76182e-04 1.58921e-04 7.95874e-12
2.30908e-04 9.06736e-06 1.12261e-11
4.27105e-04 2.94760e-04 1.30246e-11
4.86847e-04 5.73844e-05 1.13036e-11
5.14263e-04 6.79784e-04 8.32071e-12
2.61936e-04 2.25276e-04 5.44319e-12
0.00000e+00 0.00000e+00 0.00000e+00
0.00000e+00 0.00000e+00 0.00000e+00
6.05765e-05 1.87822e-04 6.47341e-11
3.12626e-05 1.76962e-04 5.84092e-11
5.17070e-06 4.96253e-04 5.19329e-11
3.35872e-05 4.73414e-04 4.37688e-11
3.29465e-05 3.68498e-04 3.39949e-11
5.32568e-04 6.88992e-05 2.57199e-11
4.12762e-04 1.65276e-04 1.81316e-11
5.53340e-04 4.02965e-04 1.19347e-11
4.42013e-04 1.43218e-04 7.62068e-12
5.19574e-04 1.28772e-04 4.27395e-12
5.94437e-04 4.23490e-04 1.76645e-12
2.90856e-04 4.18387e-05 2.13558e-12
3.37020e-04 4.60902e-04 3.40044e-12
1.93633e-04 3.48900e-04 4.68134e-12
3.26067e-04 1.93395e-04 6.64426e-12
1.07288e-06 1.04792e-04 9.25857e-12
1.64248e-05 2.24706e-04 1.03715e-11
1.41997e-04 7.86301e-04 8.15027e-12
1.93666e-04 2.95587e-04 4.51907e-12
0.00000e+00 0.00000e+00 0.00000e+00
0.00000e+00 0.00000e+00 0.00000e+00
4.23960e-04 4.53453e-04 7.46686e-11
3.73891e-04 2.06361e-04 6.82764e-11
6.37978e-04 2.51848e-05 5.98829e-11
7.05674e-04 3.85139e-05 4.91432e-11
1.00824e-03 4.02134e-04 3.90971e-11
1.11657e-03 1.37001e-04 3.00330e-11
1.33514e-03 5.87665e-06 2.18575e-11
1.31294e-03 2.48929e-04 1.50207e-11
1.79754e-03 1.13752e-05 9.83191e-12
1.62889e-03 3.75776e-04 5.35770e-12
1.58614e-03 3.69417e-04 1.66704e-12
1.20053e-03 6.69174e-05 2.81487e-13
1.18349e-03 2.51802e-04 7.39773e-13
1.02673e-03 3.12623e-04 1.13523e-12
7.44797e-04 7.47591e-05 1.53338e-12
8.26567e-04 2.21692e-05 3.34383e-12
3.89289e-04 2.64138e-04 5.00992e-12
6.06209e-04 3.54253e-04 5.63239e-12
4.96680e-04 8.69138e-05 3.16816e-12
0.00000e+00 0.00000e+00 0.00000e+00
0.00000e+00 0.00000e+00 0.00000e+00
4.64034e-04 6.46924e-04 8.46988e-11
1.68011e-05 2.02380e-04 7.64674e-11
1.97304e-04 3.76214e-04 6.56918e-11
2.43943e-04 1.42190e-04 5.40560e-11
3.88071e-04 1.37387e-04 4.37128e-11
2.02999e-04 1.56157e-04 3.38382e-11
1.52469e-04 1.02868e-04 2.52813e-11
8.38041e-05 1.09724e-04 1.79572e-11
7.03633e-05 1.45850e-04 1.19077e-11
9.57251e-05 3.45355e-04 6.31204e-12
3.99776e-04 3.18053e-04 1.46835e-12
2.17751e-04 2.36409e-05 1.76735e-12
1.95876e-05 6.54948e-05 2.09371e-12
4.43012e-05 1.65476e-04 2.86929e-12
5.31949e-04 1.17110e-04 3.49902e-12
4.77966e-04 3.78666e-05 3.51033e-12
2.17585e-04 3.59100e-04 1.84780e-12
2.99793e-05 2.08562e-04 1.23406e-12
6.48209e-04 7.17549e-04 9.04936e-13
0.00000e+00 0.00000e+00 0.00000e+00
0.00000e+00 0.00000e+00 0.00000e+00
0.00000e+00 0.00000e+00 0.00000e+00
0.00000e+00 0.00000e+00 0.00000e+00
0.00000e+00 0.00000e+00 0.00000e+00
0.00000e+00 0.00000e+00 0.00000e+00
0.00000e+00 0.00000e+00 0.00000e+00
0.00000e+00 0.00000e+00 0.00000e+00
0.00000e+00 0.00000e+00 0.00000e+00
0.00000e+00 0.00000e+00 0.00000e+00
0.00000e+00 0.00000e+00 0.00000e+00
0.00000e+00 0.00000e+00 0.00000e+00
0.00000e+00 0.00000e+00 0.00000e+00
0.00000e+00 0.00000e+00 0.00000e+00
0.00000e+00 0.00000e+00 0.00000e+00
0.00000e+00 0.00000e+00 0.00000e+00
0.00000e+00 0.00000e+00 0.00000e+00
0.00000e+00 0.00000e+00 0.00000e+00
0.00000e+00 0.00000e+00 0.00000e+00
0.00000e+00 0.00000e+00 0.00000e+00
0.00000e+00 0.00000e+00 0.00000e+00
0.00000e+00 0.00000e+00 0.00000e+00
