<?xml version="1.0"?>
<VTKFile type="UnstructuredGrid" version="0.1" byte_order="LittleEndian">
<UnstructuredGrid>
<Piece NumberOfPoints="441" NumberOfCells="400">
<Points>
<DataArray type="Float32" NumberOfComponents="3" format="ascii">
5.00000e-01 5.00000e-01 0.00000e+00
4.50000e-01 5.00000e-01 0.00000e+00
4.00000e-01 5.00000e-01 0.00000e+00
3.50000e-01 5.00000e-01 0.00000e+00
3.00000e-01 5.00000e-01 0.00000e+00
2.50000e-01 5.00000e-01 0.00000e+00
2.00000e-01 5.00000e-01 0.00000e+00
1.50000e-01 5.00000e-01 0.00000e+00
1.00000e-01 5.00000e-01 0.00000e+00
5.00000e-02 5.00000e-01 0.00000e+00
0.00000e+00 5.00000e-01 0.00000e+00
-5.00000e-02 5.00000e-01 0.00000e+00
-1.00000e-01 5.00000e-01 0.00000e+00
-1.50000e-01 5.00000e-01 0.00000e+00
-2.00000e-01 5.00000e-01 0.00000e+00
-2.50000e-01 5.00000e-01 0.00000e+00
-3.00000e-01 5.00000e-01 0.00000e+00
-3.50000e-01 5.00000e-01 0.00000e+00
-4.00000e-01 5.00000e-01 0.00000e+00
-4.50000e-01 5.00000e-01 0.00000e+00
-5.00000e-01 5.00000e-01 0.00000e+00
5.00000e-01 4.50000e-01 0.00000e+00
4.50000e-01 4.50000e-01 0.00000e+00
4.00000e-01 4.50000e-01 0.00000e+00
3.50000e-01 4.50000e-01 0.00000e+00
3.00000e-01 4.50000e-01 0.00000e+00
2.50000e-01 4.50000e-01 0.00000e+00
2.00000e-01 4.50000e-01 0.00000e+00
1.50000e-01 4.50000e-01 0.00000e+00
1.00000e-01 4.50000e-01 0.00000e+00
5.00000e-02 4.50000e-01 0.00000e+00
0.00000e+00 4.50000e-01 0.00000e+00
-5.00000e-02 4.50000e-01 0.00000e+00
-1.00000e-01 4.50000e-01 0.00000e+00
-1.50000e-01 4.50000e-01 0.00000e+00
-2.00000e-01 4.50000e-01 0.00000e+00
-2.50000e-01 4.50000e-01 0.00000e+00
-3.00000e-01 4.50000e-01 0.00000e+00
-3.50000e-01 4.50000e-01 0.00000e+00
-4.00000e-01 4.50000e-01 0.00000e+00
-4.50000e-01 4.50000e-01 0.00000e+00
-5.00000e-01 4.50000e-01 0.00000e+00
5.00000e-01 4.00000e-01 0.00000e+00
4.50000e-01 4.00000e-01 0.00000e+00
4.00000e-01 4.00000e-01 0.00000e+00
3.50000e-01 4.00000e-01 0.00000e+00
3.00000e-01 4.00000e-01 0.00000e+00
2.50000e-01 4.00000e-01 0.00000e+00
2.00000e-01 4.00000e-01 0.00000e+00
1.50000e-01 4.00000e-01 0.00000e+00
1.00000e-01 4.00000e-01 0.00000e+00
5.00000e-02 4.00000e-01 0.00000e+00
0.00000e+00 4.00000e-01 0.00000e+00
-5.00000e-02 4.00000e-01 0.00000e+00
-1.00000e-01 4.00000e-01 0.00000e+00
-1.50000e-01 4.00000e-01 0.00000e+00
-2.00000e-01 4.00000e-01 0.00000e+00
-2.50000e-01 4.00000e-01 0.00000e+00
-3.00000e-01 4.00000e-01 0.00000e+00
-3.50000e-01 4.00000e-01 0.00000e+00
-4.00000e-01 4.00000e-01 0.00000e+00
-4.50000e-01 4.00000e-01 0.00000e+00
-5.00000e-01 4.00000e-01 0.00000e+00
5.00000e-01 3.50000e-01 0.00000e+00
4.50000e-01 3.50000e-01 0.00000e+00
4.00000e-01 3.50000e-01 0.00000e+00
3.50000e-01 3.50000e-01 0.00000e+00
3.00000e-01 3.50000e-01 0.00000e+00
2.50000e-01 3.50000e-01 0.00000e+00
2.00000e-01 3.50000e-01 0.00000e+00
1.50000e-01 3.50000e-01 0.00000e+00
1.00000e-01 3.50000e-01 0.00000e+00
5.00000e-02 3.50000e-01 0.00000e+00
0.00000e+00 3.50000e-01 0.00000e+00
-5.00000e-02 3.50000e-01 0.00000e+00
-1.00000e-01 3.50000e-01 0.00000e+00
-1.50000e-01 3.50000e-01 0.00000e+00
-2.00000e-01 3.50000e-01 0.00000e+00
-2.50000e-01 3.50000e-01 0.00000e+00
-3.00000e-01 3.50000e-01 0.00000e+00
-3.50000e-01 3.50000e-01 0.00000e+00
-4.00000e-01 3.50000e-01 0.00000e+00
-4.50000e-01 3.50000e-01 0.00000e+00
-5.00000e-01 3.50000e-01 0.00000e+00
5.00000e-01 3.00000e-01 0.00000e+00
4.50000e-01 3.00000e-01 0.00000e+00
4.00000e-01 3.00000e-01 0.00000e+00
3.50000e-01 3.00000e-01 0.00000e+00
3.00000e-01 3.00000e-01 0.00000e+00
2.50000e-01 3.00000e-01 0.00000e+00
2.00000e-01 3.00000e-01 0.00000e+00
1.50000e-01 3.00000e-01 0.00000e+00
1.00000e-01 3.00000e-01 0.00000e+00
5.00000e-02 3.00000e-01 0.00000e+00
0.00000e+00 3.00000e-01 0.00000e+00
-5.00000e-02 3.00000e-01 0.00000e+00
-1.00000e-01 3.00000e-01 0.00000e+00
-1.50000e-01 3.00000e-01 0.00000e+00
-2.00000e-01 3.00000e-01 0.00000e+00
-2.50000e-01 3.00000e-01 0.00000e+00
-3.00000e-01 3.00000e-01 0.00000e+00
-3.50000e-01 3.00000e-01 0.00000e+00
-4.00000e-01 3.00000e-01 0.00000e+00
-4.50000e-01 3.00000e-01 0.00000e+00
-5.00000e-01 3.00000e-01 0.00000e+00
5.00000e-01 2.50000e-01 0.00000e+00
4.50000e-01 2.50000e-01 0.00000e+00
4.00000e-01 2.50000e-01 0.00000e+00
3.50000e-01 2.50000e-01 0.00000e+00
3.00000e-01 2.50000e-01 0.00000e+00
2.50000e-01 2.50000e-01 0.00000e+00
2.00000e-01 2.50000e-01 0.00000e+00
1.50000e-01 2.50000e-01 0.00000e+00
1.00000e-01 2.50000e-01 0.00000e+00
5.00000e-02 2.50000e-01 0.00000e+00
0.00000e+00 2.50000e-01 0.00000e+00
-5.00000e-02 2.50000e-01 0.00000e+00
-1.00000e-01 2.50000e-01 0.00000e+00
-1.50000e-01 2.50000e-01 0.00000e+00
-2.00000e-01 2.50000e-01 0.00000e+00
-2.50000e-01 2.50000e-01 0.00000e+00
-3.00000e-01 2.50000e-01 0.00000e+00
-3.50000e-01 2.50000e-01 0.00000e+00
-4.00000e-01 2.50000e-01 0.00000e+00
-4.50000e-01 2.50000e-01 0.00000e+00
-5.00000e-01 2.50000e-01 0.00000e+00
5.00000e-01 2.00000e-01 0.00000e+00
4.50000e-01 2.00000e-01 0.00000e+00
4.00000e-01 2.00000e-01 0.00000e+00
3.50000e-01 2.00000e-01 0.00000e+00
3.00000e-01 2.00000e-01 0.00000e+00
2.50000e-01 2.00000e-01 0.00000e+00
2.00000e-01 2.00000e-01 0.00000e+00
1.50000e-01 2.00000e-01 0.00000e+00
1.00000e-01 2.00000e-01 0.00000e+00
5.00000e-02 2.00000e-01 0.00000e+00
0.00000e+00 2.00000e-01 0.00000e+00
-5.00000e-02 2.00000e-01 0.00000e+00
-1.00000e-01 2.00000e-01 0.00000e+00
-1.50000e-01 2.00000e-01 0.00000e+00
-2.00000e-01 2.00000e-01 0.00000e+00
-2.50000e-01 2.00000e-01 0.00000e+00
-3.00000e-01 2.00000e-01 0.00000e+00
-3.50000e-01 2.00000e-01 0.00000e+00
-4.00000e-01 2.00000e-01 0.00000e+00
-4.50000e-01 2.00000e-01 0.00000e+00
-5.00000e-01 2.00000e-01 0.00000e+00
5.00000e-01 1.50000e-01 0.00000e+00
4.50000e-01 1.50000e-01 0.00000e+00
4.00000e-01 1.50000e-01 0.00000e+00
3.50000e-01 1.50000e-01 0.00000e+00
3.00000e-01 1.50000e-01 0.00000e+00
2.50000e-01 1.50000e-01 0.00000e+00
2.00000e-01 1.50000e-01 0.00000e+00
1.50000e-01 1.50000e-01 0.00000e+00
1.00000e-01 1.50000e-01 0.00000e+00
5.00000e-02 1.50000e-01 0.00000e+00
0.00000e+00 1.50000e-01 0.00000e+00
-5.00000e-02 1.50000e-01 0.00000e+00
-1.00000e-01 1.50000e-01 0.00000e+00
-1.50000e-01 1.50000e-01 0.00000e+00
-2.00000e-01 1.50000e-01 0.00000e+00
-2.50000e-01 1.50000e-01 0.00000e+00
-3.00000e-01 1.50000e-01 0.00000e+00
-3.50000e-01 1.50000e-01 0.00000e+00
-4.00000e-01 1.50000e-01 0.00000e+00
-4.50000e-01 1.50000e-01 0.00000e+00
-5.00000e-01 1.50000e-01 0.00000e+00
5.00000e-01 1.00000e-01 0.00000e+00
4.50000e-01 1.00000e-01 0.00000e+00
4.00000e-01 1.00000e-01 0.00000e+00
3.50000e-01 1.00000e-01 0.00000e+00
3.00000e-01 1.00000e-01 0.00000e+00
2.50000e-01 1.00000e-01 0.00000e+00
2.00000e-01 1.00000e-01 0.00000e+00
1.50000e-01 1.00000e-01 0.00000e+00
1.00000e-01 1.00000e-01 0.00000e+00
5.00000e-02 1.00000e-01 0.00000e+00
0.00000e+00 1.00000e-01 0.00000e+00
-5.00000e-02 1.00000e-01 0.00000e+00
-1.00000e-01 1.00000e-01 0.00000e+00
-1.50000e-01 1.00000e-01 0.00000e+00
-2.00000e-01 1.00000e-01 0.00000e+00
-2.50000e-01 1.00000e-01 0.00000e+00
-3.00000e-01 1.00000e-01 0.00000e+00
-3.50000e-01 1.00000e-01 0.00000e+00
-4.00000e-01 1.00000e-01 0.00000e+00
-4.50000e-01 1.00000e-01 0.00000e+00
-5.00000e-01 1.00000e-01 0.00000e+00
5.00000e-01 5.00000e-02 0.00000e+00
4.50000e-01 5.00000e-02 0.00000e+00
4.00000e-01 5.00000e-02 0.00000e+00
3.50000e-01 5.00000e-02 0.00000e+00
3.00000e-01 5.00000e-02 0.00000e+00
2.50000e-01 5.00000e-02 0.00000e+00
2.00000e-01 5.00000e-02 0.00000e+00
1.50000e-01 5.00000e-02 0.00000e+00
1.00000e-01 5.00000e-02 0.00000e+00
5.00000e-02 5.00000e-02 0.00000e+00
0.00000e+00 5.00000e-02 0.00000e+00
-5.00000e-02 5.00000e-02 0.00000e+00
-1.00000e-01 5.00000e-02 0.00000e+00
-1.50000e-01 5.00000e-02 0.00000e+00
-2.00000e-01 5.00000e-02 0.00000e+00
-2.50000e-01 5.00000e-02 0.00000e+00
-3.00000e-01 5.00000e-02 0.00000e+00
-3.50000e-01 5.00000e-02 0.00000e+00
-4.00000e-01 5.00000e-02 0.00000e+00
-4.50000e-01 5.00000e-02 0.00000e+00
-5.00000e-01 5.00000e-02 0.00000e+00
5.00000e-01 0.00000e+00 0.00000e+00
4.50000e-01 0.00000e+00 0.00000e+00
4.00000e-01 0.00000e+00 0.00000e+00
3.50000e-01 0.00000e+00 0.00000e+00
3.00000e-01 0.00000e+00 0.00000e+00
2.50000e-01 0.00000e+00 0.00000e+00
2.00000e-01 0.00000e+00 0.00000e+00
1.50000e-01 0.00000e+00 0.00000e+00
1.00000e-01 0.00000e+00 0.00000e+00
5.00000e-02 0.00000e+00 0.00000e+00
0.00000e+00 0.00000e+00 0.00000e+00
-5.00000e-02 0.00000e+00 0.00000e+00
-1.00000e-01 0.00000e+00 0.00000e+00
-1.50000e-01 0.00000e+00 0.00000e+00
-2.00000e-01 0.00000e+00 0.00000e+00
-2.50000e-01 0.00000e+00 0.00000e+00
-3.00000e-01 0.00000e+00 0.00000e+00
-3.50000e-01 0.00000e+00 0.00000e+00
-4.00000e-01 0.00000e+00 0.00000e+00
-4.50000e-01 0.00000e+00 0.00000e+00
-5.00000e-01 0.00000e+00 0.00000e+00
5.00000e-01 -5.00000e-02 0.00000e+00
4.50000e-01 -5.00000e-02 0.00000e+00
4.00000e-01 -5.00000e-02 0.00000e+00
3.50000e-01 -5.00000e-02 0.00000e+00
3.00000e-01 -5.00000e-02 0.00000e+00
2.50000e-01 -5.00000e-02 0.00000e+00
2.00000e-01 -5.00000e-02 0.00000e+00
1.50000e-01 -5.00000e-02 0.00000e+00
1.00000e-01 -5.00000e-02 0.00000e+00
5.00000e-02 -5.00000e-02 0.00000e+00
0.00000e+00 -5.00000e-02 0.00000e+00
-5.00000e-02 -5.00000e-02 0.00000e+00
-1.00000e-01 -5.00000e-02 0.00000e+00
-1.50000e-01 -5.00000e-02 0.00000e+00
-2.00000e-01 -5.00000e-02 0.00000e+00
-2.50000e-01 -5.00000e-02 0.00000e+00
-3.00000e-01 -5.00000e-02 0.00000e+00
-3.50000e-01 -5.00000e-02 0.00000e+00
-4.00000e-01 -5.00000e-02 0.00000e+00
-4.50000e-01 -5.00000e-02 0.00000e+00
-5.00000e-01 -5.00000e-02 0.00000e+00
5.00000e-01 -1.00000e-01 0.00000e+00
4.50000e-01 -1.00000e-01 0.00000e+00
4.00000e-01 -1.00000e-01 0.00000e+00
3.50000e-01 -1.00000e-01 0.00000e+00
3.00000e-01 -1.00000e-01 0.00000e+00
2.50000e-01 -1.00000e-01 0.00000e+00
2.00000e-01 -1.00000e-01 0.00000e+00
1.50000e-01 -1.00000e-01 0.00000e+00
1.00000e-01 -1.00000e-01 0.00000e+00
5.00000e-02 -1.00000e-01 0.00000e+00
0.00000e+00 -1.00000e-01 0.00000e+00
-5.00000e-02 -1.00000e-01 0.00000e+00
-1.00000e-01 -1.00000e-01 0.00000e+00
-1.50000e-01 -1.00000e-01 0.00000e+00
-2.00000e-01 -1.00000e-01 0.00000e+00
-2.50000e-01 -1.00000e-01 0.00000e+00
-3.00000e-01 -1.00000e-01 0.00000e+00
-3.50000e-01 -1.00000e-01 0.00000e+00
-4.00000e-01 -1.00000e-01 0.00000e+00
-4.50000e-01 -1.00000e-01 0.00000e+00
-5.00000e-01 -1.00000e-01 0.00000e+00
5.00000e-01 -1.50000e-01 0.00000e+00
4.50000e-01 -1.50000e-01 0.00000e+00
4.00000e-01 -1.50000e-01 0.00000e+00
3.50000e-01 -1.50000e-01 0.00000e+00
3.00000e-01 -1.50000e-01 0.00000e+00
2.50000e-01 -1.50000e-01 0.00000e+00
2.00000e-01 -1.50000e-01 0.00000e+00
1.50000e-01 -1.50000e-01 0.00000e+00
1.00000e-01 -1.50000e-01 0.00000e+00
5.00000e-02 -1.50000e-01 0.00000e+00
0.00000e+00 -1.50000e-01 0.00000e+00
-5.00000e-02 -1.50000e-01 0.00000e+00
-1.00000e-01 -1.50000e-01 0.00000e+00
-1.50000e-01 -1.50000e-01 0.00000e+00
-2.00000e-01 -1.50000e-01 0.00000e+00
-2.50000e-01 -1.50000e-01 0.00000e+00
-3.00000e-01 -1.50000e-01 0.00000e+00
-3.50000e-01 -1.50000e-01 0.00000e+00
-4.00000e-01 -1.50000e-01 0.00000e+00
-4.50000e-01 -1.50000e-01 0.00000e+00
-5.00000e-01 -1.50000e-01 0.00000e+00
5.00000e-01 -2.00000e-01 0.00000e+00
4.50000e-01 -2.00000e-01 0.00000e+00
4.00000e-01 -2.00000e-01 0.00000e+00
3.50000e-01 -2.00000e-01 0.00000e+00
3.00000e-01 -2.00000e-01 0.00000e+00
2.50000e-01 -2.00000e-01 0.00000e+00
2.00000e-01 -2.00000e-01 0.00000e+00
1.50000e-01 -2.00000e-01 0.00000e+00
1.00000e-01 -2.00000e-01 0.00000e+00
5.00000e-02 -2.00000e-01 0.00000e+00
0.00000e+00 -2.00000e-01 0.00000e+00
-5.00000e-02 -2.00000e-01 0.00000e+00
-1.00000e-01 -2.00000e-01 0.00000e+00
-1.50000e-01 -2.00000e-01 0.00000e+00
-2.00000e-01 -2.00000e-01 0.00000e+00
-2.50000e-01 -2.00000e-01 0.00000e+00
-3.00000e-01 -2.00000e-01 0.00000e+00
-3.50000e-01 -2.00000e-01 0.00000e+00
-4.00000e-01 -2.00000e-01 0.00000e+00
-4.50000e-01 -2.00000e-01 0.00000e+00
-5.00000e-01 -2.00000e-01 0.00000e+00
5.00000e-01 -2.50000e-01 0.00000e+00
4.50000e-01 -2.50000e-01 0.00000e+00
4.00000e-01 -2.50000e-01 0.00000e+00
3.50000e-01 -2.50000e-01 0.00000e+00
3.00000e-01 -2.50000e-01 0.00000e+00
2.50000e-01 -2.50000e-01 0.00000e+00
2.00000e-01 -2.50000e-01 0.00000e+00
1.50000e-01 -2.50000e-01 0.00000e+00
1.00000e-01 -2.50000e-01 0.00000e+00
5.00000e-02 -2.50000e-01 0.00000e+00
0.00000e+00 -2.50000e-01 0.00000e+00
-5.00000e-02 -2.50000e-01 0.00000e+00
-1.00000e-01 -2.50000e-01 0.00000e+00
-1.50000e-01 -2.50000e-01 0.00000e+00
-2.00000e-01 -2.50000e-01 0.00000e+00
-2.50000e-01 -2.50000e-01 0.00000e+00
-3.00000e-01 -2.50000e-01 0.00000e+00
-3.50000e-01 -2.50000e-01 0.00000e+00
-4.00000e-01 -2.50000e-01 0.00000e+00
-4.50000e-01 -2.50000e-01 0.00000e+00
-5.00000e-01 -2.50000e-01 0.00000e+00
5.00000e-01 -3.00000e-01 0.00000e+00
4.50000e-01 -3.00000e-01 0.00000e+00
4.00000e-01 -3.00000e-01 0.00000e+00
3.50000e-01 -3.00000e-01 0.00000e+00
3.00000e-01 -3.00000e-01 0.00000e+00
2.50000e-01 -3.00000e-01 0.00000e+00
2.00000e-01 -3.00000e-01 0.00000e+00
1.50000e-01 -3.00000e-01 0.00000e+00
1.00000e-01 -3.00000e-01 0.00000e+00
5.00000e-02 -3.00000e-01 0.00000e+00
0.00000e+00 -3.00000e-01 0.00000e+00
-5.00000e-02 -3.00000e-01 0.00000e+00
-1.00000e-01 -3.00000e-01 0.00000e+00
-1.50000e-01 -3.00000e-01 0.00000e+00
-2.00000e-01 -3.00000e-01 0.00000e+00
-2.50000e-01 -3.00000e-01 0.00000e+00
-3.00000e-01 -3.00000e-01 0.00000e+00
-3.50000e-01 -3.00000e-01 0.00000e+00
-4.00000e-01 -3.00000e-01 0.00000e+00
-4.50000e-01 -3.00000e-01 0.00000e+00
-5.00000e-01 -3.00000e-01 0.00000e+00
5.00000e-01 -3.50000e-01 0.00000e+00
4.50000e-01 -3.50000e-01 0.00000e+00
4.00000e-01 -3.50000e-01 0.00000e+00
3.50000e-01 -3.50000e-01 0.00000e+00
3.00000e-01 -3.50000e-01 0.00000e+00
2.50000e-01 -3.50000e-01 0.00000e+00
2.00000e-01 -3.50000e-01 0.00000e+00
1.50000e-01 -3.50000e-01 0.00000e+00
1.00000e-01 -3.50000e-01 0.00000e+00
5.00000e-02 -3.50000e-01 0.00000e+00
0.00000e+00 -3.50000e-01 0.00000e+00
-5.00000e-02 -3.50000e-01 0.00000e+00
-1.00000e-01 -3.50000e-01 0.00000e+00
-1.50000e-01 -3.50000e-01 0.00000e+00
-2.00000e-01 -3.50000e-01 0.00000e+00
-2.50000e-01 -3.50000e-01 0.00000e+00
-3.00000e-01 -3.50000e-01 0.00000e+00
-3.50000e-01 -3.50000e-01 0.00000e+00
-4.00000e-01 -3.50000e-01 0.00000e+00
-4.50000e-01 -3.50000e-01 0.00000e+00
-5.00000e-01 -3.50000e-01 0.00000e+00
5.00000e-01 -4.00000e-01 0.00000e+00
4.50000e-01 -4.00000e-01 0.00000e+00
4.00000e-01 -4.00000e-01 0.00000e+00
3.50000e-01 -4.00000e-01 0.00000e+00
3.00000e-01 -4.00000e-01 0.00000e+00
2.50000e-01 -4.00000e-01 0.00000e+00
2.00000e-01 -4.00000e-01 0.00000e+00
1.50000e-01 -4.00000e-01 0.00000e+00
1.00000e-01 -4.00000e-01 0.00000e+00
5.00000e-02 -4.00000e-01 0.00000e+00
0.00000e+00 -4.00000e-01 0.00000e+00
-5.00000e-02 -4.00000e-01 0.00000e+00
-1.00000e-01 -4.00000e-01 0.00000e+00
-1.50000e-01 -4.00000e-01 0.00000e+00
-2.00000e-01 -4.00000e-01 0.00000e+00
-2.50000e-01 -4.00000e-01 0.00000e+00
-3.00000e-01 -4.00000e-01 0.00000e+00
-3.50000e-01 -4.00000e-01 0.00000e+00
-4.00000e-01 -4.00000e-01 0.00000e+00
-4.50000e-01 -4.00000e-01 0.00000e+00
-5.00000e-01 -4.00000e-01 0.00000e+00
5.00000e-01 -4.50000e-01 0.00000e+00
4.50000e-01 -4.50000e-01 0.00000e+00
4.00000e-01 -4.50000e-01 0.00000e+00
3.50000e-01 -4.50000e-01 0.00000e+00
3.00000e-01 -4.50000e-01 0.00000e+00
2.50000e-01 -4.50000e-01 0.00000e+00
2.00000e-01 -4.50000e-01 0.00000e+00
1.50000e-01 -4.50000e-01 0.00000e+00
1.00000e-01 -4.50000e-01 0.00000e+00
5.00000e-02 -4.50000e-01 0.00000e+00
0.00000e+00 -4.50000e-01 0.00000e+00
-5.00000e-02 -4.50000e-01 0.00000e+00
-1.00000e-01 -4.50000e-01 0.00000e+00
-1.50000e-01 -4.50000e-01 0.00000e+00
-2.00000e-01 -4.50000e-01 0.00000e+00
-2.50000e-01 -4.50000e-01 0.00000e+00
-3.00000e-01 -4.50000e-01 0.00000e+00
-3.50000e-01 -4.50000e-01 0.00000e+00
-4.00000e-01 -4.50000e-01 0.00000e+00
-4.50000e-01 -4.50000e-01 0.00000e+00
-5.00000e-01 -4.50000e-01 0.00000e+00
5.00000e-01 -5.00000e-01 0.00000e+00
4.50000e-01 -5.00000e-01 0.00000e+00
4.00000e-01 -5.00000e-01 0.00000e+00
3.50000e-01 -5.00000e-01 0.00000e+00
3.00000e-01 -5.00000e-01 0.00000e+00
2.50000e-01 -5.00000e-01 0.00000e+00
2.00000e-01 -5.00000e-01 0.00000e+00
1.50000e-01 -5.00000e-01 0.00000e+00
1.00000e-01 -5.00000e-01 0.00000e+00
5.00000e-02 -5.00000e-01 0.00000e+00
0.00000e+00 -5.00000e-01 0.00000e+00
-5.00000e-02 -5.00000e-01 0.00000e+00
-1.00000e-01 -5.00000e-01 0.00000e+00
-1.50000e-01 -5.00000e-01 0.00000e+00
-2.00000e-01 -5.00000e-01 0.00000e+00
-2.50000e-01 -5.00000e-01 0.00000e+00
-3.00000e-01 -5.00000e-01 0.00000e+00
-3.50000e-01 -5.00000e-01 0.00000e+00
-4.00000e-01 -5.00000e-01 0.00000e+00
-4.50000e-01 -5.00000e-01 0.00000e+00
-5.00000e-01 -5.00000e-01 0.00000e+00
</DataArray>
</Points>
<Cells>
<DataArray Name="connectivity" type="Int32" format="ascii">
0 1 22 21
1 2 23 22
2 3 24 23
3 4 25 24
4 5 26 25
5 6 27 26
6 7 28 27
7 8 29 28
8 9 30 29
9 10 31 30
10 11 32 31
11 12 33 32
12 13 34 33
13 14 35 34
14 15 36 35
15 16 37 36
16 17 38 37
17 18 39 38
18 19 40 39
19 20 41 40
21 22 43 42
22 23 44 43
23 24 45 44
24 25 46 45
25 26 47 46
26 27 48 47
27 28 49 48
28 29 50 49
29 30 51 50
30 31 52 51
31 32 53 52
32 33 54 53
33 34 55 54
34 35 56 55
35 36 57 56
36 37 58 57
37 38 59 58
38 39 60 59
39 40 61 60
40 41 62 61
42 43 64 63
43 44 65 64
44 45 66 65
45 46 67 66
46 47 68 67
47 48 69 68
48 49 70 69
49 50 71 70
50 51 72 71
51 52 73 72
52 53 74 73
53 54 75 74
54 55 76 75
55 56 77 76
56 57 78 77
57 58 79 78
58 59 80 79
59 60 81 80
60 61 82 81
61 62 83 82
63 64 85 84
64 65 86 85
65 66 87 86
66 67 88 87
67 68 89 88
68 69 90 89
69 70 91 90
70 71 92 91
71 72 93 92
72 73 94 93
73 74 95 94
74 75 96 95
75 76 97 96
76 77 98 97
77 78 99 98
78 79 100 99
79 80 101 100
80 81 102 101
81 82 103 102
82 83 104 103
84 85 106 105
85 86 107 106
86 87 108 107
87 88 109 108
88 89 110 109
89 90 111 110
90 91 112 111
91 92 113 112
92 93 114 113
93 94 115 114
94 95 116 115
95 96 117 116
96 97 118 117
97 98 119 118
98 99 120 119
99 100 121 120
100 101 122 121
101 102 123 122
102 103 124 123
103 104 125 124
105 106 127 126
106 107 128 127
107 108 129 128
108 109 130 129
109 110 131 130
110 111 132 131
111 112 133 132
112 113 134 133
113 114 135 134
114 115 136 135
115 116 137 136
116 117 138 137
117 118 139 138
118 119 140 139
119 120 141 140
120 121 142 141
121 122 143 142
122 123 144 143
123 124 145 144
124 125 146 145
126 127 148 147
127 128 149 148
128 129 150 149
129 130 151 150
130 131 152 151
131 132 153 152
132 133 154 153
133 134 155 154
134 135 156 155
135 136 157 156
136 137 158 157
137 138 159 158
138 139 160 159
139 140 161 160
140 141 162 161
141 142 163 162
142 143 164 163
143 144 165 164
144 145 166 165
145 146 167 166
147 148 169 168
148 149 170 169
149 150 171 170
150 151 172 171
151 152 173 172
152 153 174 173
153 154 175 174
154 155 176 175
155 156 177 176
156 157 178 177
157 158 179 178
158 159 180 179
159 160 181 180
160 161 182 181
161 162 183 182
162 163 184 183
163 164 185 184
164 165 186 185
165 166 187 186
166 167 188 187
168 169 190 189
169 170 191 190
170 171 192 191
171 172 193 192
172 173 194 193
173 174 195 194
174 175 196 195
175 176 197 196
176 177 198 197
177 178 199 198
178 179 200 199
179 180 201 200
180 181 202 201
181 182 203 202
182 183 204 203
183 184 205 204
184 185 206 205
185 186 207 206
186 187 208 207
187 188 209 208
189 190 211 210
190 191 212 211
191 192 213 212
192 193 214 213
193 194 215 214
194 195 216 215
195 196 217 216
196 197 218 217
197 198 219 218
198 199 220 219
199 200 221 220
200 201 222 221
201 202 223 222
202 203 224 223
203 204 225 224
204 205 226 225
205 206 227 226
206 207 228 227
207 208 229 228
208 209 230 229
210 211 232 231
211 212 233 232
212 213 234 233
213 214 235 234
214 215 236 235
215 216 237 236
216 217 238 237
217 218 239 238
218 219 240 239
219 220 241 240
220 221 242 241
221 222 243 242
222 223 244 243
223 224 245 244
224 225 246 245
225 226 247 246
226 227 248 247
227 228 249 248
228 229 250 249
229 230 251 250
231 232 253 252
232 233 254 253
233 234 255 254
234 235 256 255
235 236 257 256
236 237 258 257
237 238 259 258
238 239 260 259
239 240 261 260
240 241 262 261
241 242 263 262
242 243 264 263
243 244 265 264
244 245 266 265
245 246 267 266
246 247 268 267
247 248 269 268
248 249 270 269
249 250 271 270
250 251 272 271
252 253 274 273
253 254 275 274
254 255 276 275
255 256 277 276
256 257 278 277
257 258 279 278
258 259 280 279
259 260 281 280
260 261 282 281
261 262 283 282
262 263 284 283
263 264 285 284
264 265 286 285
265 266 287 286
266 267 288 287
267 268 289 288
268 269 290 289
269 270 291 290
270 271 292 291
271 272 293 292
273 274 295 294
274 275 296 295
275 276 297 296
276 277 298 297
277 278 299 298
278 279 300 299
279 280 301 300
280 281 302 301
281 282 303 302
282 283 304 303
283 284 305 304
284 285 306 305
285 286 307 306
286 287 308 307
287 288 309 308
288 289 310 309
289 290 311 310
290 291 312 311
291 292 313 312
292 293 314 313
294 295 316 315
295 296 317 316
296 297 318 317
297 298 319 318
298 299 320 319
299 300 321 320
300 301 322 321
301 302 323 322
302 303 324 323
303 304 325 324
304 305 326 325
305 306 327 326
306 307 328 327
307 308 329 328
308 309 330 329
309 310 331 330
310 311 332 331
311 312 333 332
312 313 334 333
313 314 335 334
315 316 337 336
316 317 338 337
317 318 339 338
318 319 340 339
319 320 341 340
320 321 342 341
321 322 343 342
322 323 344 343
323 324 345 344
324 325 346 345
325 326 347 346
326 327 348 347
327 328 349 348
328 329 350 349
329 330 351 350
330 331 352 351
331 332 353 352
332 333 354 353
333 334 355 354
334 335 356 355
336 337 358 357
337 338 359 358
338 339 360 359
339 340 361 360
340 341 362 361
341 342 363 362
342 343 364 363
343 344 365 364
344 345 366 365
345 346 367 366
346 347 368 367
347 348 369 368
348 349 370 369
349 350 371 370
350 351 372 371
351 352 373 372
352 353 374 373
353 354 375 374
354 355 376 375
355 356 377 376
357 358 379 378
358 359 380 379
359 360 381 380
360 361 382 381
361 362 383 382
362 363 384 383
363 364 385 384
364 365 386 385
365 366 387 386
366 367 388 387
367 368 389 388
368 369 390 389
369 370 391 390
370 371 392 391
371 372 393 392
372 373 394 393
373 374 395 394
374 375 396 395
375 376 397 396
376 377 398 397
378 379 400 399
379 380 401 400
380 381 402 401
381 382 403 402
382 383 404 403
383 384 405 404
384 385 406 405
385 386 407 406
386 387 408 407
387 388 409 408
388 389 410 409
389 390 411 410
390 391 412 411
391 392 413 412
392 393 414 413
393 394 415 414
394 395 416 415
395 396 417 416
396 397 418 417
397 398 419 418
399 400 421 420
400 401 422 421
401 402 423 422
402 403 424 423
403 404 425 424
404 405 426 425
405 406 427 426
406 407 428 427
407 408 429 428
408 409 430 429
409 410 431 430
410 411 432 431
411 412 433 432
412 413 434 433
413 414 435 434
414 415 436 435
415 416 437 436
416 417 438 437
417 418 439 438
418 419 440 439
</DataArray>
<DataArray Name="offsets" type="Int32" format="ascii">
4
8
12
16
20
24
28
32
36
40
44
48
52
56
60
64
68
72
76
80
84
88
92
96
100
104
108
112
116
120
124
128
132
136
140
144
148
152
156
160
164
168
172
176
180
184
188
192
196
200
204
208
212
216
220
224
228
232
236
240
244
248
252
256
260
264
268
272
276
280
284
288
292
296
300
304
308
312
316
320
324
328
332
336
340
344
348
352
356
360
364
368
372
376
380
384
388
392
396
400
404
408
412
416
420
424
428
432
436
440
444
448
452
456
460
464
468
472
476
480
484
488
492
496
500
504
508
512
516
520
524
528
532
536
540
544
548
552
556
560
564
568
572
576
580
584
588
592
596
600
604
608
612
616
620
624
628
632
636
640
644
648
652
656
660
664
668
672
676
680
684
688
692
696
700
704
708
712
716
720
724
728
732
736
740
744
748
752
756
760
764
768
772
776
780
784
788
792
796
800
804
808
812
816
820
824
828
832
836
840
844
848
852
856
860
864
868
872
876
880
884
888
892
896
900
904
908
912
916
920
924
928
932
936
940
944
948
952
956
960
964
968
972
976
980
984
988
992
996
1000
1004
1008
1012
1016
1020
1024
1028
1032
1036
1040
1044
1048
1052
1056
1060
1064
1068
1072
1076
1080
1084
1088
1092
1096
1100
1104
1108
1112
1116
1120
1124
1128
1132
1136
1140
1144
1148
1152
1156
1160
1164
1168
1172
1176
1180
1184
1188
1192
1196
1200
1204
1208
1212
1216
1220
1224
1228
1232
1236
1240
1244
1248
1252
1256
1260
1264
1268
1272
1276
1280
1284
1288
1292
1296
1300
1304
1308
1312
1316
1320
1324
1328
1332
1336
1340
1344
1348
1352
1356
1360
1364
1368
1372
1376
1380
1384
1388
1392
1396
1400
1404
1408
1412
1416
1420
1424
1428
1432
1436
1440
1444
1448
1452
1456
1460
1464
1468
1472
1476
1480
1484
1488
1492
1496
1500
1504
1508
1512
1516
1520
1524
1528
1532
1536
1540
1544
1548
1552
1556
1560
1564
1568
1572
1576
1580
1584
1588
1592
1596
1600
</DataArray>
<DataArray Name="types" type="UInt8" format="ascii">
9
9
9
9
9
9
9
9
9
9
9
9
9
9
9
9
9
9
9
9
9
9
9
9
9
9
9
9
9
9
9
9
9
9
9
9
9
9
9
9
9
9
9
9
9
9
9
9
9
9
9
9
9
9
9
9
9
9
9
9
9
9
9
9
9
9
9
9
9
9
9
9
9
9
9
9
9
9
9
9
9
9
9
9
9
9
9
9
9
9
9
9
9
9
9
9
9
9
9
9
9
9
9
9
9
9
9
9
9
9
9
9
9
9
9
9
9
9
9
9
9
9
9
9
9
9
9
9
9
9
9
9
9
9
9
9
9
9
9
9
9
9
9
9
9
9
9
9
9
9
9
9
9
9
9
9
9
9
9
9
9
9
9
9
9
9
9
9
9
9
9
9
9
9
9
9
9
9
9
9
9
9
9
9
9
9
9
9
9
9
9
9
9
9
9
9
9
9
9
9
9
9
9
9
9
9
9
9
9
9
9
9
9
9
9
9
9
9
9
9
9
9
9
9
9
9
9
9
9
9
9
9
9
9
9
9
9
9
9
9
9
9
9
9
9
9
9
9
9
9
9
9
9
9
9
9
9
9
9
9
9
9
9
9
9
9
9
9
9
9
9
9
9
9
9
9
9
9
9
9
9
9
9
9
9
9
9
9
9
9
9
9
9
9
9
9
9
9
9
9
9
9
9
9
9
9
9
9
9
9
9
9
9
9
9
9
9
9
9
9
9
9
9
9
9
9
9
9
9
9
9
9
9
9
9
9
9
9
9
9
9
9
9
9
9
9
9
9
9
9
9
9
9
9
9
9
9
9
9
9
9
9
9
9
9
9
9
9
9
9
9
9
9
9
9
9
9
9
9
9
9
9
9
9
9
9
9
9
9
9
9
9
9
9
9
9
9
9
9
9
</DataArray>
</Cells>
<PointData>
<DataArray Name="Mises" type="Float32" format="ascii">
0.00000e+00
0.00000e+00
0.00000e+00
0.00000e+00
0.00000e+00
0.00000e+00
0.00000e+00
0.00000e+00
0.00000e+00
0.00000e+00
0.00000e+00
0.00000e+00
0.00000e+00
0.00000e+00
0.00000e+00
0.00000e+00
0.00000e+00
0.00000e+00
0.00000e+00
0.00000e+00
0.00000e+00
0.00000e+00
0.00000e+00
0.00000e+00
0.00000e+00
0.00000e+00
0.00000e+00
0.00000e+00
0.00000e+00
0.00000e+00
0.00000e+00
0.00000e+00
0.00000e+00
0.00000e+00
0.00000e+00
0.00000e+00
0.00000e+00
0.00000e+00
0.00000e+00
0.00000e+00
0.00000e+00
0.00000e+00
0.00000e+00
0.00000e+00
0.00000e+00
0.00000e+00
0.00000e+00
0.00000e+00
0.00000e+00
0.00000e+00
0.00000e+00
0.00000e+00
0.00000e+00
0.00000e+00
0.00000e+00
0.00000e+00
0.00000e+00
0.00000e+00
0.00000e+00
0.00000e+00
0.00000e+00
0.00000e+00
0.00000e+00
0.00000e+00
0.00000e+00
0.00000e+00
0.00000e+00
0.00000e+00
0.00000e+00
0.00000e+00
0.00000e+00
0.00000e+00
0.00000e+00
0.00000e+00
0.00000e+00
0.00000e+00
0.00000e+00
0.00000e+00
0.00000e+00
0.00000e+00
0.00000e+00
0.00000e+00
0.00000e+00
0.00000e+00
0.00000e+00
0.00000e+00
0.00000e+00
0.00000e+00
0.00000e+00
0.00000e+00
0.00000e+00
0.00000e+00
0.00000e+00
0.00000e+00
0.00000e+00
0.00000e+00
0.00000e+00
0.00000e+00
0.00000e+00
0.00000e+00
0.00000e+00
0.00000e+00
0.00000e+00
0.00000e+00
0.00000e+00
0.00000e+00
0.00000e+00
0.00000e+00
0.00000e+00
0.00000e+00
0.00000e+00
0.00000e+00
0.00000e+00
0.00000e+00
0.00000e+00
0.00000e+00
0.00000e+00
0.00000e+00
0.00000e+00
0.00000e+00
0.00000e+00
0.00000e+00
0.00000e+00
0.00000e+00
0.00000e+00
0.00000e+00
0.00000e+00
0.00000e+00
0.00000e+00
0.00000e+00
0.00000e+00
0.00000e+00
0.00000e+00
0.00000e+00
0.00000e+00
0.00000e+00
0.00000e+00
0.00000e+00
0.00000e+00
0.00000e+00
0.00000e+00
0.00000e+00
0.00000e+00
0.00000e+00
0.00000e+00
0.00000e+00
0.00000e+00
0.00000e+00
0.00000e+00
0.00000e+00
0.00000e+00
0.00000e+00
0.00000e+00
0.00000e+00
0.00000e+00
0.00000e+00
0.00000e+00
0.00000e+00
0.00000e+00
0.00000e+00
0.00000e+00
0.00000e+00
0.00000e+00
0.00000e+00
0.00000e+00
0.00000e+00
0.00000e+00
0.00000e+00
0.00000e+00
0.00000e+00
0.00000e+00
0.00000e+00
0.00000e+00
0.00000e+00
0.00000e+00
0.00000e+00
0.00000e+00
0.00000e+00
0.00000e+00
0.00000e+00
0.00000e+00
0.00000e+00
0.00000e+00
0.00000e+00
0.00000e+00
0.00000e+00
0.00000e+00
0.00000e+00
0.00000e+00
0.00000e+00
0.00000e+00
0.00000e+00
0.00000e+00
0.00000e+00
0.00000e+00
0.00000e+00
0.00000e+00
0.00000e+00
0.00000e+00
0.00000e+00
0.00000e+00
0.00000e+00
0.00000e+00
0.00000e+00
0.00000e+00
0.00000e+00
0.00000e+00
0.00000e+00
0.00000e+00
0.00000e+00
0.00000e+00
0.00000e+00
0.00000e+00
0.00000e+00
0.00000e+00
0.00000e+00
0.00000e+00
0.00000e+00
0.00000e+00
0.00000e+00
0.00000e+00
0.00000e+00
0.00000e+00
0.00000e+00
0.00000e+00
0.00000e+00
0.00000e+00
0.00000e+00
0.00000e+00
0.00000e+00
0.00000e+00
0.00000e+00
0.00000e+00
0.00000e+00
0.00000e+00
0.00000e+00
0.00000e+00
0.00000e+00
0.00000e+00
0.00000e+00
0.00000e+00
0.00000e+00
0.00000e+00
0.00000e+00
0.00000e+00
0.00000e+00
0.00000e+00
0.00000e+00
0.00000e+00
0.00000e+00
0.00000e+00
0.00000e+00
0.00000e+00
0.00000e+00
0.00000e+00
0.00000e+00
0.00000e+00
0.00000e+00
0.00000e+00
0.00000e+00
0.00000e+00
0.00000e+00
0.00000e+00
0.00000e+00
0.00000e+00
0.00000e+00
0.00000e+00
0.00000e+00
0.00000e+00
0.00000e+00
0.00000e+00
0.00000e+00
0.00000e+00
0.00000e+00
0.00000e+00
0.00000e+00
0.00000e+00
0.00000e+00
0.00000e+00
0.00000e+00
0.00000e+00
0.00000e+00
0.00000e+00
0.00000e+00
0.00000e+00
0.00000e+00
0.00000e+00
0.00000e+00
0.00000e+00
0.00000e+00
0.00000e+00
0.00000e+00
0.00000e+00
0.00000e+00
0.00000e+00
0.00000e+00
0.00000e+00
0.00000e+00
0.00000e+00
0.00000e+00
0.00000e+00
0.00000e+00
0.00000e+00
0.00000e+00
0.00000e+00
0.00000e+00
0.00000e+00
0.00000e+00
0.00000e+00
0.00000e+00
0.00000e+00
0.00000e+00
0.00000e+00
0.00000e+00
0.00000e+00
0.00000e+00
0.00000e+00
0.00000e+00
0.00000e+00
0.00000e+00
0.00000e+00
0.00000e+00
0.00000e+00
0.00000e+00
0.00000e+00
0.00000e+00
0.00000e+00
0.00000e+00
0.00000e+00
0.00000e+00
0.00000e+00
0.00000e+00
0.00000e+00
0.00000e+00
0.00000e+00
0.00000e+00
0.00000e+00
0.00000e+00
0.00000e+00
0.00000e+00
0.00000e+00
0.00000e+00
0.00000e+00
0.00000e+00
0.00000e+00
0.00000e+00
0.00000e+00
0.00000e+00
0.00000e+00
0.00000e+00
0.00000e+00
0.00000e+00
0.00000e+00
0.00000e+00
0.00000e+00
0.00000e+00
0.00000e+00
0.00000e+00
0.00000e+00
0.00000e+00
0.00000e+00
0.00000e+00
0.00000e+00
0.00000e+00
0.00000e+00
0.00000e+00
0.00000e+00
0.00000e+00
0.00000e+00
0.00000e+00
0.00000e+00
0.00000e+00
0.00000e+00
0.00000e+00
0.00000e+00
0.00000e+00
0.00000e+00
0.00000e+00
0.00000e+00
0.00000e+00
0.00000e+00
0.00000e+00
0.00000e+00
0.00000e+00
0.00000e+00
0.00000e+00
0.00000e+00
0.00000e+00
0.00000e+00
0.00000e+00
0.00000e+00
0.00000e+00
0.00000e+00
0.00000e+00
0.00000e+00
0.00000e+00
0.00000e+00
0.00000e+00
0.00000e+00
0.00000e+00
0.00000e+00
0.00000e+00
0.00000e+00
0.00000e+00
0.00000e+00
0.00000e+00
0.00000e+00
0.00000e+00
0.00000e+00
0.00000e+00
0.00000e+00
0.00000e+00
0.00000e+00
0.00000e+00
0.00000e+00
0.00000e+00
0.00000e+00
0.00000e+00
0.00000e+00
0.00000e+00
0.00000e+00
0.00000e+00
0.00000e+00
0.00000e+00
0.00000e+00
0.00000e+00
0.00000e+00
0.00000e+00
0.00000e+00
0.00000e+00
0.00000e+00
0.00000e+00
0.00000e+00
0.00000e+00
0.00000e+00
0.00000e+00
0.00000e+00
0.00000e+00
0.00000e+00
0.00000e+00
0.00000e+00
</DataArray>
<DataArray Name="Disp" type="Float32" NumberOfComponents="3" format="ascii">
0.00000e+00 0.00000e+00 0.00000e+00
0.00000e+00 0.00000e+00 0.00000e+00
0.00000e+00 0.00000e+00 0.00000e+00
0.00000e+00 0.00000e+00 0.00000e+00
0.00000e+00 0.00000e+00 0.00000e+00
0.00000e+00 0.00000e+00 0.00000e+00
0.00000e+00 0.00000e+00 0.00000e+00
0.00000e+00 0.00000e+00 0.00000e+00
0.00000e+00 0.00000e+00 0.00000e+00
0.00000e+00 0.00000e+00 0.00000e+00
0.00000e+00 0.00000e+00 0.00000e+00
0.00000e+00 0.00000e+00 0.00000e+00
0.00000e+00 0.00000e+00 0.00000e+00
0.00000e+00 0.00000e+00 0.00000e+00
0.00000e+00 0.00000e+00 0.00000e+00
0.00000e+00 0.00000e+00 0.00000e+00
0.00000e+00 0.00000e+00 0.00000e+00
0.00000e+00 0.00000e+00 0.00000e+00
0.00000e+00 0.00000e+00 0.00000e+00
0.00000e+00 0.00000e+00 0.00000e+00
0.00000e+00 0.00000e+00 0.00000e+00
0.00000e+00 0.00000e+00 0.00000e+00
-3.84903e-16 -8.15916e-17 -9.21058e-05
7.49470e-16 -9.09904e-17 -3.47822e-04
4.67606e-16 3.96415e-16 -6.93419e-04
3.02651e-16 1.12452e-16 -1.05735e-03
1.66219e-16 -9.17162e-16 -1.40077e-03
8.54471e-17 -7.09521e-16 -1.70004e-03
1.04743e-15 8.17985e-18 -1.94169e-03
9.44037e-16 -1.39313e-16 -2.11812e-03
7.55193e-16 -9.26889e-16 -2.22526e-03
-7.11340e-16 -2.93987e-16 -2.26116e-03
7.15269e-16 3.71298e-16 -2.22524e-03
7.20831e-16 -1.42968e-16 -2.11811e-03
5.69452e-16 3.03890e-16 -1.94167e-03
3.64550e-16 -1.68901e-16 -1.70003e-03
1.11081e-15 3.47902e-16 -1.40076e-03
9.47939e-16 -1.70737e-16 -1.05735e-03
9.50968e-16 4.86949e-16 -6.93403e-04
3.39341e-16 4.04164e-16 -3.47820e-04
7.98334e-16 1.41791e-16 -9.21021e-05
0.00000e+00 0.00000e+00 0.00000e+00
0.00000e+00 0.00000e+00 0.00000e+00
7.52030e-16 6.39530e-16 -3.47823e-04
4.51809e-16 1.05023e-15 -1.25449e-03
4.02127e-16 7.52316e-16 -2.45828e-03
1.18626e-15 -7.16040e-16 -3.74200e-03
3.96328e-16 -2.49333e-16 -4.96373e-03
3.75214e-16 6.76814e-16 -6.03660e-03
2.98535e-16 5.42989e-16 -6.90777e-03
9.64707e-16 -1.23359e-16 -7.54634e-03
8.20166e-16 -5.62543e-16 -7.93514e-03
5.14577e-16 4.91256e-16 -8.06557e-03
7.94744e-16 -1.01152e-16 -7.93513e-03
6.61677e-16 -1.12163e-16 -7.54630e-03
9.98361e-16 7.28175e-18 -6.90775e-03
1.07461e-15 -1.07246e-16 -6.03660e-03
1.42459e-15 7.58526e-16 -4.96373e-03
3.23324e-16 -8.79111e-17 -3.74196e-03
5.79455e-16 8.27174e-17 -2.45825e-03
4.75630e-16 2.21354e-16 -1.25447e-03
9.10015e-16 -9.18069e-17 -3.47832e-04
0.00000e+00 0.00000e+00 0.00000e+00
0.00000e+00 0.00000e+00 0.00000e+00
6.18638e-16 1.41468e-16 -6.93416e-04
-4.69647e-16 6.18230e-16 -2.45828e-03
2.26215e-16 7.31605e-16 -4.77614e-03
4.21600e-16 1.07712e-15 -7.26342e-03
-2.93795e-16 -8.12865e-17 -9.65077e-03
2.94630e-16 -6.07812e-16 -1.17621e-02
1.54207e-15 2.79822e-16 -1.34862e-02
1.32056e-16 -3.73165e-16 -1.47553e-02
4.32670e-16 -1.19386e-16 -1.55300e-02
5.83224e-16 -5.97315e-16 -1.57903e-02
4.96952e-16 8.79772e-17 -1.55300e-02
1.93946e-15 2.93297e-16 -1.47553e-02
-6.87946e-16 3.62933e-16 -1.34862e-02
-7.17162e-17 -6.00451e-16 -1.17621e-02
8.13998e-16 -2.80397e-16 -9.65071e-03
5.46217e-16 9.85303e-17 -7.26336e-03
5.15679e-16 -4.53542e-17 -4.77607e-03
5.33182e-16 -3.54582e-16 -2.45825e-03
1.09443e-15 4.59650e-16 -6.93394e-04
0.00000e+00 0.00000e+00 0.00000e+00
0.00000e+00 0.00000e+00 0.00000e+00
5.55343e-17 -6.12561e-16 -1.05734e-03
4.86359e-16 -1.02989e-16 -3.74202e-03
1.97935e-16 1.20793e-15 -7.26347e-03
7.05885e-16 1.17626e-15 -1.10543e-02
1.42066e-16 -1.84803e-16 -1.47136e-02
1.86905e-16 -9.72123e-16 -1.79677e-02
5.40789e-16 -1.84772e-16 -2.06372e-02
4.35361e-16 -8.60061e-17 -2.26088e-02
1.01803e-16 -4.69520e-16 -2.38152e-02
8.13264e-16 -5.12899e-16 -2.42209e-02
1.19511e-15 -4.59957e-16 -2.38151e-02
7.32282e-16 -8.01195e-16 -2.26087e-02
7.85946e-16 5.57708e-16 -2.06371e-02
1.94800e-16 -7.23420e-16 -1.79676e-02
2.50198e-16 -5.80656e-16 -1.47135e-02
9.70174e-16 -9.14800e-16 -1.10541e-02
6.24391e-16 -5.49581e-17 -7.26335e-03
1.02460e-15 -2.64938e-16 -3.74196e-03
5.36164e-16 5.29454e-16 -1.05734e-03
0.00000e+00 0.00000e+00 0.00000e+00
0.00000e+00 0.00000e+00 0.00000e+00
3.18259e-16 4.43048e-16 -1.40079e-03
6.58235e-16 -3.49237e-16 -4.96380e-03
3.59504e-16 8.66544e-16 -9.65088e-03
5.46789e-16 -2.03916e-16 -1.47137e-02
-2.28426e-16 -2.18984e-16 -1.96204e-02
7.78459e-16 1.08333e-16 -2.40013e-02
4.19132e-16 -6.69983e-17 -2.76076e-02
2.20884e-16 7.29211e-17 -3.02784e-02
-2.17093e-16 -3.45840e-16 -3.19154e-02
4.32613e-17 6.99048e-16 -3.24666e-02
3.35513e-16 -1.51015e-16 -3.19154e-02
6.53282e-16 2.40727e-16 -3.02783e-02
5.91467e-16 -5.14501e-16 -2.76075e-02
2.13186e-16 -4.01285e-16 -2.40012e-02
1.04038e-15 -5.46422e-16 -1.96202e-02
8.30528e-17 -5.26572e-16 -1.47135e-02
3.21037e-16 -5.71598e-16 -9.65073e-03
1.36397e-15 2.64253e-16 -4.96374e-03
-1.14375e-16 -1.43920e-16 -1.40078e-03
0.00000e+00 0.00000e+00 0.00000e+00
0.00000e+00 0.00000e+00 0.00000e+00
3.52126e-16 -2.27089e-17 -1.70006e-03
-3.68073e-16 -4.19165e-16 -6.03672e-03
3.02668e-16 3.17821e-16 -1.17623e-02
-4.76787e-16 -3.36529e-16 -1.79679e-02
-4.87113e-16 -4.41918e-16 -2.40015e-02
-2.38370e-16 -2.61326e-16 -2.94045e-02
8.23863e-16 -4.85673e-16 -3.38638e-02
6.09736e-17 8.70257e-16 -3.71728e-02
7.95506e-16 -9.02815e-16 -3.92039e-02
-3.67639e-17 -2.80605e-16 -3.98881e-02
-6.46871e-18 -8.11510e-17 -3.92039e-02
-2.67640e-16 -2.40991e-16 -3.71727e-02
7.56043e-16 6.58466e-16 -3.38636e-02
-1.13404e-15 -5.65594e-16 -2.94043e-02
-4.90039e-16 3.63264e-16 -2.40013e-02
2.78607e-16 -4.20025e-16 -1.79677e-02
7.60982e-16 -5.06797e-16 -1.17621e-02
5.87316e-16 5.94031e-16 -6.03667e-03
2.55698e-16 7.51986e-16 -1.70007e-03
0.00000e+00 0.00000e+00 0.00000e+00
0.00000e+00 0.00000e+00 0.00000e+00
-1.01471e-15 1.08304e-16 -1.94173e-03
-1.71122e-16 -1.74046e-16 -6.90792e-03
1.16610e-15 -9.89144e-16 -1.34865e-02
2.92415e-16 2.91901e-16 -2.06375e-02
-4.51827e-16 5.23851e-16 -2.76079e-02
1.30064e-16 -4.68818e-16 -3.38639e-02
5.72004e-17 -7.22176e-16 -3.90367e-02
3.72640e-16 -8.47017e-16 -4.28808e-02
2.00763e-16 -3.89537e-16 -4.52427e-02
1.36785e-15 -4.83658e-16 -4.60388e-02
7.21039e-16 -4.22189e-16 -4.52427e-02
-4.44231e-16 -5.66973e-16 -4.28808e-02
7.37477e-16 2.74667e-16 -3.90365e-02
1.03794e-15 4.96956e-17 -3.38637e-02
1.25705e-15 2.57448e-17 -2.76077e-02
3.89460e-17 -1.19812e-15 -2.06373e-02
-6.80821e-16 -2.00054e-16 -1.34864e-02
-1.74460e-16 5.77994e-16 -6.90793e-03
1.63199e-16 5.43924e-17 -1.94173e-03
0.00000e+00 0.00000e+00 0.00000e+00
0.00000e+00 0.00000e+00 0.00000e+00
-2.92156e-16 -5.26280e-16 -2.11817e-03
3.05021e-16 -7.37506e-16 -7.54651e-03
6.26570e-17 -7.22384e-16 -1.47556e-02
-1.49204e-16 -3.68450e-16 -2.26092e-02
4.46643e-16 4.63768e-16 -3.02787e-02
-2.79497e-16 -4.54974e-16 -3.71730e-02
2.75935e-16 -4.55642e-16 -4.28810e-02
3.91310e-16 -1.27044e-17 -4.71270e-02
5.50592e-16 -5.39610e-16 -4.97376e-02
9.63738e-16 -8.64779e-16 -5.06177e-02
8.26549e-16 -5.39889e-16 -4.97376e-02
3.93574e-16 -7.09110e-16 -4.71268e-02
-3.81275e-16 -3.10136e-16 -4.28808e-02
8.14258e-16 -4.37023e-16 -3.71728e-02
1.04342e-15 -9.88561e-17 -3.02786e-02
5.49046e-16 -1.18579e-15 -2.26091e-02
9.82322e-17 -8.85680e-16 -1.47556e-02
7.56111e-16 -2.27558e-16 -7.54653e-03
-5.48936e-16 9.06455e-16 -2.11818e-03
0.00000e+00 0.00000e+00 0.00000e+00
0.00000e+00 0.00000e+00 0.00000e+00
4.50250e-16 -2.48956e-16 -2.22530e-03
2.13087e-16 -2.70172e-16 -7.93530e-03
-2.32004e-16 -6.88444e-17 -1.55303e-02
-1.62641e-17 -9.70170e-16 -2.38155e-02
1.20586e-15 -5.13532e-16 -3.19157e-02
3.52960e-16 -8.14132e-16 -3.92041e-02
7.28522e-16 -9.09883e-16 -4.52429e-02
-9.13525e-17 -1.31340e-15 -4.97377e-02
-3.64739e-16 -2.69182e-16 -5.25022e-02
-1.92342e-16 -3.31671e-16 -5.34346e-02
1.59878e-15 -1.17811e-15 -5.25021e-02
-1.46721e-16 -3.11516e-17 -4.97376e-02
1.73381e-16 -2.11187e-16 -4.52428e-02
1.39326e-15 -2.85595e-16 -3.92041e-02
1.46903e-15 -1.05114e-15 -3.19158e-02
7.70895e-16 -8.34159e-16 -2.38155e-02
1.58331e-16 -2.63306e-16 -1.55304e-02
2.25965e-16 -1.01241e-15 -7.93533e-03
-5.16157e-16 3.26821e-16 -2.22532e-03
0.00000e+00 0.00000e+00 0.00000e+00
0.00000e+00 0.00000e+00 0.00000e+00
2.76281e-16 -6.09919e-17 -2.26119e-03
5.73622e-16 -1.60325e-16 -8.06571e-03
-6.43231e-16 -5.44068e-16 -1.57906e-02
-7.36071e-16 -5.75554e-16 -2.42212e-02
1.02588e-15 1.53858e-16 -3.24668e-02
7.81907e-16 2.01467e-16 -3.98883e-02
1.53929e-16 3.68669e-16 -4.60390e-02
1.21268e-17 3.70455e-16 -5.06179e-02
-3.94228e-17 -2.52651e-16 -5.34346e-02
-3.69962e-16 -3.36746e-16 -5.43845e-02
8.21879e-16 -2.63470e-16 -5.34346e-02
8.05496e-17 -3.99707e-16 -5.06178e-02
2.38211e-17 -8.52815e-16 -4.60391e-02
6.75737e-16 -9.84717e-16 -3.98884e-02
-1.96168e-16 -1.18219e-15 -3.24670e-02
5.54325e-16 -3.74497e-16 -2.42213e-02
-8.51739e-17 -2.32206e-17 -1.57907e-02
3.27891e-16 -5.58778e-16 -8.06577e-03
-4.36051e-16 2.98774e-16 -2.26122e-03
0.00000e+00 0.00000e+00 0.00000e+00
0.00000e+00 0.00000e+00 0.00000e+00
-6.61929e-17 -1.49304e-16 -2.22528e-03
1.06903e-15 1.09007e-16 -7.93520e-03
7.63080e-16 -1.55966e-16 -1.55302e-02
-2.66630e-16 -9.46197e-18 -2.38153e-02
1.04855e-15 -3.05646e-16 -3.19156e-02
-3.59719e-16 -7.40091e-16 -3.92040e-02
-7.15565e-17 -4.65486e-16 -4.52427e-02
1.39609e-16 -1.69366e-16 -4.97376e-02
-2.53963e-16 2.53604e-16 -5.25022e-02
6.72083e-16 -5.11841e-16 -5.34346e-02
3.52980e-16 -5.77987e-17 -5.25022e-02
-3.33117e-16 1.18787e-16 -4.97377e-02
-7.94680e-16 -4.55291e-16 -4.52429e-02
-5.10529e-16 -4.90310e-16 -3.92042e-02
3.22088e-16 -3.98596e-16 -3.19159e-02
4.77491e-16 2.71148e-16 -2.38156e-02
2.36978e-16 2.50295e-16 -1.55304e-02
9.42341e-16 -6.43745e-16 -7.93534e-03
8.95491e-16 -3.23706e-16 -2.22532e-03
0.00000e+00 0.00000e+00 0.00000e+00
0.00000e+00 0.00000e+00 0.00000e+00
-4.02865e-16 4.86507e-17 -2.11811e-03
1.79162e-16 1.00691e-16 -7.54633e-03
6.93800e-16 1.14272e-16 -1.47553e-02
-3.65364e-16 -7.22112e-16 -2.26088e-02
5.59357e-16 -5.10988e-16 -3.02784e-02
8.35332e-16 -4.85155e-16 -3.71727e-02
5.66360e-16 -3.42371e-16 -4.28807e-02
-2.16645e-17 -2.11295e-16 -4.71268e-02
-3.13173e-16 -9.30029e-17 -4.97375e-02
-3.22452e-16 -9.23735e-16 -5.06177e-02
-1.25067e-16 -4.71557e-16 -4.97375e-02
-6.41594e-18 -3.86177e-16 -4.71269e-02
5.60088e-16 -7.56516e-16 -4.28810e-02
2.69681e-16 -6.17639e-16 -3.71730e-02
2.69447e-16 -1.63888e-16 -3.02788e-02
2.67740e-16 -3.24759e-16 -2.26092e-02
4.60323e-17 -4.80688e-17 -1.47557e-02
1.68149e-15 -4.31796e-17 -7.54654e-03
-5.64189e-17 -2.06982e-16 -2.11818e-03
0.00000e+00 0.00000e+00 0.00000e+00
0.00000e+00 0.00000e+00 0.00000e+00
6.94206e-17 -5.69341e-16 -1.94166e-03
1.77237e-16 -8.40369e-16 -6.90773e-03
1.00732e-15 -1.78508e-16 -1.34862e-02
4.87663e-16 -2.03587e-16 -2.06371e-02
9.96823e-17 -1.11201e-15 -2.76075e-02
5.68756e-16 -3.45051e-16 -3.38636e-02
7.38155e-16 -7.65732e-16 -3.90364e-02
3.23985e-16 3.94360e-16 -4.28806e-02
1.85282e-16 -2.32598e-16 -4.52425e-02
8.89073e-17 -1.45572e-15 -4.60387e-02
5.79359e-16 1.08915e-16 -4.52426e-02
9.61946e-16 1.05859e-16 -4.28808e-02
6.40694e-16 1.65653e-16 -3.90366e-02
1.38278e-15 -4.30333e-16 -3.38639e-02
4.26618e-16 -4.40814e-16 -2.76079e-02
9.42901e-16 -1.00253e-15 -2.06375e-02
-3.86162e-18 -1.06775e-15 -1.34866e-02
3.84337e-16 -9.54933e-16 -6.90797e-03
8.69792e-16 -3.59528e-16 -1.94174e-03
0.00000e+00 0.00000e+00 0.00000e+00
0.00000e+00 0.00000e+00 0.00000e+00
2.77128e-16 -4.49527e-16 -1.70002e-03
-4.43419e-16 -6.39964e-16 -6.03655e-03
-3.78989e-16 -1.22797e-15 -1.17620e-02
6.23758e-17 -5.92301e-16 -1.79675e-02
1.07122e-15 -8.12817e-16 -2.40011e-02
3.86133e-16 -4.80245e-16 -2.94041e-02
3.92089e-16 -1.05407e-16 -3.38635e-02
7.89600e-16 1.58064e-16 -3.71725e-02
7.82295e-16 -1.16638e-15 -3.92036e-02
3.00176e-16 -6.38458e-16 -3.98879e-02
8.06178e-16 -5.62518e-16 -3.92037e-02
4.45821e-16 -7.28971e-16 -3.71727e-02
1.84392e-16 4.53325e-16 -3.38637e-02
-3.91755e-17 1.72106e-16 -2.94045e-02
1.08393e-15 -7.09496e-16 -2.40015e-02
8.55768e-16 -5.10640e-16 -1.79679e-02
2.19787e-16 -1.37957e-15 -1.17623e-02
7.06205e-16 -3.69795e-16 -6.03676e-03
3.45042e-16 -6.72386e-16 -1.70008e-03
0.00000e+00 0.00000e+00 0.00000e+00
0.00000e+00 0.00000e+00 0.00000e+00
-3.95549e-16 -8.03598e-16 -1.40075e-03
4.01726e-16 5.17956e-16 -4.96366e-03
-3.14248e-16 -3.54242e-16 -9.65059e-03
-3.76530e-16 -5.15638e-16 -1.47134e-02
1.27600e-15 -1.33256e-15 -1.96200e-02
-6.01567e-16 -8.74253e-16 -2.40010e-02
1.52377e-15 -7.14224e-16 -2.76074e-02
4.10134e-16 -6.94267e-17 -3.02782e-02
3.17198e-16 -5.89835e-16 -3.19152e-02
8.83574e-16 -1.21504e-15 -3.24664e-02
4.45211e-16 -5.15133e-16 -3.19153e-02
1.01004e-15 -5.83522e-16 -3.02783e-02
8.95564e-16 -2.96781e-16 -2.76076e-02
7.81821e-16 -3.00645e-16 -2.40013e-02
4.57616e-16 -1.05696e-15 -1.96204e-02
-4.54200e-16 -6.94824e-16 -1.47138e-02
2.89021e-16 -1.01314e-15 -9.65094e-03
1.83552e-17 -9.35006e-16 -4.96383e-03
1.43675e-15 -1.22939e-15 -1.40080e-03
0.00000e+00 0.00000e+00 0.00000e+00
0.00000e+00 0.00000e+00 0.00000e+00
-6.19344e-16 -2.41102e-16 -1.05732e-03
-3.80676e-16 7.01253e-17 -3.74190e-03
1.04616e-15 -1.60186e-16 -7.26327e-03
-1.00086e-17 -1.20307e-15 -1.10540e-02
1.31924e-16 -1.75178e-15 -1.47133e-02
1.27019e-16 -1.24803e-15 -1.79675e-02
1.38313e-15 6.25543e-16 -2.06370e-02
3.57603e-16 -7.84621e-16 -2.26086e-02
1.69338e-16 1.57117e-16 -2.38150e-02
4.92596e-16 -7.66396e-16 -2.42208e-02
4.32747e-16 -9.46517e-16 -2.38150e-02
1.62059e-15 -8.26898e-16 -2.26087e-02
2.88793e-16 -5.91898e-16 -2.06372e-02
3.78456e-16 -4.26294e-17 -1.79678e-02
4.70897e-16 -8.19032e-16 -1.47137e-02
1.24438e-15 -1.71961e-15 -1.10544e-02
1.06125e-15 9.18270e-17 -7.26352e-03
8.53452e-16 -5.33098e-16 -3.74207e-03
4.83530e-16 -1.10753e-15 -1.05736e-03
0.00000e+00 0.00000e+00 0.00000e+00
0.00000e+00 0.00000e+00 0.00000e+00
6.88897e-16 -2.49580e-16 -6.93385e-04
5.92699e-16 -4.13470e-16 -2.45823e-03
1.03309e-16 -1.00241e-15 -4.77600e-03
1.25833e-16 -9.80602e-16 -7.26326e-03
9.82630e-18 -6.43531e-16 -9.65056e-03
1.63977e-15 -7.99054e-16 -1.17619e-02
8.48625e-16 -4.05143e-16 -1.34861e-02
9.82519e-16 -5.64148e-16 -1.47552e-02
7.53867e-16 -1.11171e-15 -1.55299e-02
3.96030e-16 -4.64357e-16 -1.57902e-02
1.77242e-15 -9.81339e-16 -1.55300e-02
1.31326e-15 -1.25901e-15 -1.47553e-02
1.17208e-16 -7.37183e-16 -1.34863e-02
1.63334e-16 -5.72641e-16 -1.17622e-02
-7.71745e-17 1.95504e-16 -9.65090e-03
8.49310e-16 -7.39532e-16 -7.26350e-03
7.72825e-16 -2.58385e-16 -4.77622e-03
6.37628e-16 -2.08039e-16 -2.45833e-03
7.53301e-16 -3.16106e-16 -6.93426e-04
0.00000e+00 0.00000e+00 0.00000e+00
0.00000e+00 0.00000e+00 0.00000e+00
1.22470e-15 -6.73228e-16 -3.47830e-04
-4.94842e-16 -1.39188e-16 -1.25444e-03
5.07932e-16 -1.13181e-16 -2.45822e-03
6.32746e-16 -1.10435e-15 -3.74190e-03
2.57575e-16 -4.22196e-16 -4.96366e-03
-3.54986e-16 -3.31539e-16 -6.03649e-03
-8.72453e-16 -7.34378e-16 -6.90768e-03
1.38109e-15 1.68461e-16 -7.54623e-03
7.87983e-16 -1.08881e-15 -7.93503e-03
1.22396e-15 5.87856e-18 -8.06547e-03
1.38609e-15 -7.09408e-16 -7.93506e-03
-2.68099e-16 -1.11235e-15 -7.54629e-03
-2.82463e-16 -2.91420e-16 -6.90777e-03
4.03180e-16 4.39929e-16 -6.03669e-03
-1.38813e-16 3.30765e-16 -4.96380e-03
-4.88027e-16 -2.08632e-16 -3.74207e-03
4.64641e-16 -6.43799e-16 -2.45831e-03
1.06617e-15 -2.50272e-16 -1.25454e-03
-6.85336e-17 -4.84524e-16 -3.47824e-04
0.00000e+00 0.00000e+00 0.00000e+00
0.00000e+00 0.00000e+00 0.00000e+00
3.67187e-16 1.99106e-16 -9.20948e-05
-4.14365e-16 -2.44083e-17 -3.47811e-04
5.99749e-16 -3.34766e-16 -6.93387e-04
6.93182e-16 -8.18522e-16 -1.05733e-03
-2.87345e-16 -7.00005e-16 -1.40074e-03
3.43918e-16 2.27637e-16 -1.70001e-03
-1.34433e-17 -4.07753e-16 -1.94165e-03
-4.46721e-16 -2.38538e-16 -2.11808e-03
-2.26235e-16 -5.42845e-16 -2.22521e-03
-7.07332e-16 -3.74918e-16 -2.26113e-03
-8.34145e-17 -6.87427e-16 -2.22523e-03
3.64938e-16 -3.37443e-16 -2.11810e-03
1.15600e-16 -6.58607e-16 -1.94170e-03
-1.09995e-16 -1.12031e-15 -1.70004e-03
1.34408e-16 -4.01686e-16 -1.40081e-03
-1.65809e-16 1.91481e-16 -1.05735e-03
9.86780e-17 -7.24221e-17 -6.93441e-04
5.91524e-16 -2.33408e-16 -3.47825e-04
-8.41814e-17 -3.89747e-16 -9.21080e-05
0.00000e+00 0.00000e+00 0.00000e+00
0.00000e+00 0.00000e+00 0.00000e+00
0.00000e+00 0.00000e+00 0.00000e+00
0.00000e+00 0.00000e+00 0.00000e+00
0.00000e+00 0.00000e+00 0.00000e+00
0.00000e+00 0.00000e+00 0.00000e+00
0.00000e+00 0.00000e+00 0.00000e+00
0.00000e+00 0.00000e+00 0.00000e+00
0.00000e+00 0.00000e+00 0.00000e+00
0.00000e+00 0.00000e+00 0.00000e+00
0.00000e+00 0.00000e+00 0.00000e+00
0.00000e+00 0.00000e+00 0.00000e+00
0.00000e+00 0.00000e+00 0.00000e+00
0.00000e+00 0.00000e+00 0.00000e+00
0.00000e+00 0.00000e+00 0.00000e+00
0.00000e+00 0.00000e+00 0.00000e+00
0.00000e+00 0.00000e+00 0.00000e+00
0.00000e+00 0.00000e+00 0.00000e+00
0.00000e+00 0.00000e+00 0.00000e+00
0.00000e+00 0.00000e+00 0.00000e+00
0.00000e+00 0.00000e+00 0.00000e+00
0.00000e+00 0.00000e+00 0.00000e+00
</DataArray>
<DataArray Name="angDisp" type="Float32" NumberOfComponents="3" format="ascii">
0.00000e+00 0.00000e+00 0.00000e+00
0.00000e+00 0.00000e+00 0.00000e+00
0.00000e+00 0.00000e+00 0.00000e+00
0.00000e+00 0.00000e+00 0.00000e+00
0.00000e+00 0.00000e+00 0.00000e+00
0.00000e+00 0.00000e+00 0.00000e+00
0.00000e+00 0.00000e+00 0.00000e+00
0.00000e+00 0.00000e+00 0.00000e+00
0.00000e+00 0.00000e+00 0.00000e+00
0.00000e+00 0.00000e+00 0.00000e+00
0.00000e+00 0.00000e+00 0.00000e+00
0.00000e+00 0.00000e+00 0.00000e+00
0.00000e+00 0.00000e+00 0.00000e+00
0.00000e+00 0.00000e+00 0.00000e+00
0.00000e+00 0.00000e+00 0.00000e+00
0.00000e+00 0.00000e+00 0.00000e+00
0.00000e+00 0.00000e+00 0.00000e+00
0.00000e+00 0.00000e+00 0.00000e+00
0.00000e+00 0.00000e+00 0.00000e+00
0.00000e+00 0.00000e+00 0.00000e+00
0.00000e+00 0.00000e+00 0.00000e+00
0.00000e+00 0.00000e+00 0.00000e+00
3.85205e-03 -3.85230e-03 1.67537e-16
1.37876e-02 -6.71120e-03 -3.33916e-16
2.74696e-02 -7.61290e-03 -5.90232e-17
4.17644e-02 -7.49287e-03 -9.38039e-16
5.53965e-02 -6.76728e-03 -6.67295e-16
6.71962e-02 -5.66748e-03 -5.89792e-16
7.68064e-02 -4.37266e-03 -1.58762e-15
8.37677e-02 -2.96228e-03 -4.16204e-16
8.80435e-02 -1.48945e-03 -9.61691e-16
8.94408e-02 -4.50801e-06 -8.17092e-16
8.80428e-02 1.49941e-03 -6.00820e-16
8.37669e-02 2.95230e-03 -1.39781e-16
7.68066e-02 4.38198e-03 -8.90107e-17
6.71954e-02 5.65913e-03 5.21268e-16
5.53972e-02 6.77443e-03 -5.33836e-16
4.17635e-02 7.48694e-03 -1.69495e-16
2.74697e-02 7.61716e-03 -2.69648e-16
1.37872e-02 6.70793e-03 -6.59564e-17
3.85278e-03 3.85381e-03 7.30340e-16
0.00000e+00 0.00000e+00 0.00000e+00
0.00000e+00 0.00000e+00 0.00000e+00
6.71118e-03 -1.37870e-02 -2.06193e-17
2.22642e-02 -2.22657e-02 -4.07874e-18
4.30528e-02 -2.56459e-02 -3.54268e-16
6.51384e-02 -2.55079e-02 -8.01494e-16
8.66944e-02 -2.32138e-02 -1.29919e-15
1.05571e-01 -1.95914e-02 -8.32117e-16
1.21183e-01 -1.51817e-02 -6.52959e-16
1.32541e-01 -1.03104e-02 -5.15773e-16
1.39591e-01 -5.21594e-03 -6.19851e-16
1.41874e-01 9.87524e-06 -7.55557e-17
1.39591e-01 5.19641e-03 -9.88660e-17
1.32540e-01 1.03294e-02 -5.72978e-16
1.21183e-01 1.51626e-02 -3.19959e-16
1.05572e-01 1.96083e-02 1.70960e-16
8.66937e-02 2.31993e-02 8.57409e-18
6.51383e-02 2.55210e-02 2.20752e-16
4.30516e-02 2.56366e-02 -6.13601e-16
2.22645e-02 2.22703e-02 -3.13630e-16
6.71095e-03 1.37843e-02 -9.23320e-16
0.00000e+00 0.00000e+00 0.00000e+00
0.00000e+00 0.00000e+00 0.00000e+00
7.61299e-03 -2.74705e-02 -2.23285e-16
2.56458e-02 -4.30513e-02 5.80918e-17
4.97210e-02 -4.97216e-02 -6.63630e-16
7.52862e-02 -4.98901e-02 -1.16850e-15
1.00519e-01 -4.57521e-02 -5.75837e-16
1.22852e-01 -3.88552e-02 -6.59937e-16
1.41476e-01 -3.02439e-02 -1.12008e-16
1.55120e-01 -2.06262e-02 -3.99449e-16
1.63621e-01 -1.04234e-02 1.00874e-16
1.66385e-01 -1.48883e-05 -6.33174e-17
1.63620e-01 1.04531e-02 -3.58242e-16
1.55122e-01 2.05979e-02 1.66731e-16
1.41473e-01 3.02718e-02 2.40251e-16
1.22852e-01 3.88299e-02 7.74499e-16
1.00516e-01 4.57761e-02 1.03943e-16
7.52857e-02 4.98713e-02 -1.81473e-16
4.97201e-02 4.97339e-02 -1.88746e-16
2.56457e-02 4.30426e-02 -6.56439e-16
7.61276e-03 2.74737e-02 -2.41170e-16
0.00000e+00 0.00000e+00 0.00000e+00
0.00000e+00 0.00000e+00 0.00000e+00
7.49214e-03 -4.17627e-02 -6.89413e-16
2.55107e-02 -6.51416e-02 3.69324e-17
4.98894e-02 -7.52853e-02 -1.29891e-15
7.59964e-02 -7.59916e-02 -1.91391e-16
1.01818e-01 -7.01021e-02 -1.03286e-16
1.24892e-01 -5.98462e-02 -6.46714e-17
1.44194e-01 -4.67812e-02 -5.99058e-16
1.58454e-01 -3.19747e-02 -8.16028e-16
1.67325e-01 -1.62242e-02 -1.13851e-16
1.70245e-01 1.95073e-05 2.12281e-16
1.67327e-01 1.61852e-02 -7.20833e-16
1.58450e-01 3.20137e-02 -3.77574e-16
1.44197e-01 4.67448e-02 -3.50875e-16
1.24886e-01 5.98806e-02 2.52801e-16
1.01819e-01 7.00715e-02 2.29912e-16
7.59927e-02 7.60178e-02 -9.35901e-18
4.98899e-02 7.52660e-02 -1.74888e-16
2.55092e-02 6.51512e-02 -1.21377e-15
7.49247e-03 4.17574e-02 -1.10876e-15
0.00000e+00 0.00000e+00 0.00000e+00
0.00000e+00 0.00000e+00 0.00000e+00
6.76955e-03 -5.53992e-02 -3.73591e-16
2.32110e-02 -8.66926e-02 -2.54134e-16
4.57601e-02 -1.00520e-01 -7.61780e-16
7.00978e-02 -1.01820e-01 -6.96774e-16
9.43515e-02 -9.43400e-02 -2.63440e-16
1.16062e-01 -8.08408e-02 2.26030e-16
1.34362e-01 -6.33764e-02 7.77638e-17
1.47870e-01 -4.34430e-02 1.99559e-16
1.56343e-01 -2.20268e-02 -2.17959e-16
1.59100e-01 -2.40127e-05 -1.18645e-15
1.56341e-01 2.20748e-02 -6.52514e-16
1.47875e-01 4.33980e-02 -6.93645e-16
1.34353e-01 6.34229e-02 -1.06081e-15
1.16068e-01 8.07997e-02 1.62458e-16
9.43430e-02 9.43778e-02 -6.32631e-16
7.01028e-02 1.01787e-01 2.83310e-17
4.57557e-02 1.00541e-01 2.90345e-16
2.32138e-02 8.66770e-02 4.32873e-16
6.76850e-03 5.54055e-02 -7.23772e-16
0.00000e+00 0.00000e+00 0.00000e+00
0.00000e+00 0.00000e+00 0.00000e+00
5.66428e-03 -6.71949e-02 2.56054e-16
1.95990e-02 -1.05577e-01 2.58866e-16
3.88468e-02 -1.22853e-01 -5.68829e-16
5.98612e-02 -1.24888e-01 -8.79353e-16
8.08279e-02 -1.16069e-01 -8.34423e-16
9.97726e-02 -9.97517e-02 -3.77056e-16
1.15683e-01 -7.84014e-02 1.12982e-16
1.27556e-01 -5.38012e-02 2.18746e-16
1.34929e-01 -2.73608e-02 -1.07471e-17
1.37392e-01 2.67581e-05 -8.16861e-16
1.34933e-01 2.73070e-02 -1.19809e-15
1.27548e-01 5.38577e-02 1.88635e-16
1.15694e-01 7.83506e-02 -2.98872e-16
9.97612e-02 9.98007e-02 -9.55154e-16
8.08398e-02 1.16024e-01 -5.17074e-16
5.98524e-02 1.24924e-01 -6.15559e-16
3.88551e-02 1.22824e-01 -8.51708e-16
1.95953e-02 1.05592e-01 -8.64436e-16
5.66649e-03 6.71875e-02 4.81412e-16
0.00000e+00 0.00000e+00 0.00000e+00
0.00000e+00 0.00000e+00 0.00000e+00
4.37790e-03 -7.68103e-02 2.37979e-16
1.51719e-02 -1.21183e-01 -3.67158e-16
3.02591e-02 -1.41479e-01 -1.81107e-15
4.67638e-02 -1.44199e-01 -1.03902e-15
6.34018e-02 -1.34348e-01 -1.09110e-15
7.83774e-02 -1.15700e-01 -9.00239e-16
9.11011e-02 -9.10702e-02 1.36407e-16
1.00501e-01 -6.26102e-02 -9.50596e-17
1.06441e-01 -3.18059e-02 -7.49721e-16
1.08358e-01 -3.08630e-05 -4.33329e-17
1.06435e-01 3.18674e-02 -1.23887e-15
1.00511e-01 6.25527e-02 -3.09218e-16
9.10876e-02 9.11303e-02 -2.41850e-16
7.83945e-02 1.15645e-01 1.15087e-16
6.33877e-02 1.34398e-01 -2.68353e-16
4.67785e-02 1.44155e-01 -6.75860e-16
3.02499e-02 1.41506e-01 -7.20975e-16
1.51794e-02 1.21164e-01 -1.04404e-15
4.37468e-03 7.68190e-02 -5.59182e-17
0.00000e+00 0.00000e+00 0.00000e+00
0.00000e+00 0.00000e+00 0.00000e+00
2.95531e-03 -8.37670e-02 -2.45766e-16
1.03241e-02 -1.32546e-01 -3.99598e-16
2.06080e-02 -1.55122e-01 -1.35082e-15
3.19998e-02 -1.58450e-01 -1.27743e-15
4.34124e-02 -1.47879e-01 -4.73102e-16
5.38383e-02 -1.27535e-01 -3.85644e-16
6.25753e-02 -1.00525e-01 -2.00074e-16
6.91676e-02 -6.91282e-02 4.00038e-17
7.32250e-02 -3.51975e-02 -1.58189e-16
7.46109e-02 3.22743e-05 -7.20926e-16
7.32300e-02 3.51346e-02 -9.32742e-16
6.91544e-02 6.91936e-02 -1.34581e-17
6.25942e-02 1.00463e-01 -4.04426e-16
5.38199e-02 1.27594e-01 -1.89995e-17
4.34346e-02 1.47825e-01 -7.02182e-17
3.19843e-02 1.58494e-01 -4.64129e-16
2.06229e-02 1.55090e-01 -7.79123e-16
1.03145e-02 1.32567e-01 -6.01450e-16
2.95982e-03 8.37584e-02 -5.68324e-16
0.00000e+00 0.00000e+00 0.00000e+00
0.00000e+00 0.00000e+00 0.00000e+00
1.49731e-03 -8.80471e-02 1.14832e-16
5.19941e-03 -1.39592e-01 -9.74309e-16
1.04471e-02 -1.63623e-01 -1.20466e-15
1.61917e-02 -1.67329e-01 -1.05889e-15
2.20642e-02 -1.56332e-01 -1.05657e-15
2.73168e-02 -1.34945e-01 -6.55233e-16
3.18522e-02 -1.06413e-01 -3.84490e-16
3.51546e-02 -7.32570e-02 -1.71497e-16
3.72887e-02 -3.72451e-02 -3.92160e-16
3.79501e-02 -3.21689e-05 -9.91074e-16
3.72815e-02 3.73119e-02 -2.05969e-16
3.51698e-02 7.31919e-02 -3.10263e-16
3.18323e-02 1.06476e-01 -5.54020e-16
2.73445e-02 1.34884e-01 -4.02914e-16
2.20436e-02 1.56388e-01 -7.72953e-16
1.62155e-02 1.67281e-01 -1.70140e-15
1.04312e-02 1.63657e-01 -1.23971e-15
5.21200e-03 1.39571e-01 3.13938e-16
1.49183e-03 8.80574e-02 -7.84710e-16
0.00000e+00 0.00000e+00 0.00000e+00
0.00000e+00 0.00000e+00 0.00000e+00
-5.34356e-06 -8.94411e-02 -4.24455e-16
8.84235e-06 -1.41878e-01 -1.04104e-15
-1.65452e-05 -1.66387e-01 -2.55366e-16
1.70494e-05 -1.70241e-01 -1.18568e-15
-2.32976e-05 -1.59109e-01 -4.52159e-16
2.31161e-05 -1.37375e-01 -1.06989e-15
-2.32205e-05 -1.08380e-01 1.64648e-17
1.92435e-05 -7.45783e-02 -1.78410e-16
-1.59567e-05 -3.79858e-02 -1.24898e-15
1.22245e-05 3.19414e-05 -1.15925e-15
-6.63273e-06 3.79227e-02 1.40672e-16
4.68190e-06 7.46424e-02 -4.15954e-16
2.37770e-06 1.08315e-01 -6.19179e-16
-3.28142e-06 1.37433e-01 -6.35081e-16
8.12747e-06 1.59053e-01 -6.31340e-17
-6.10859e-06 1.70289e-01 1.80953e-16
6.58939e-06 1.66354e-01 -7.18532e-16
-4.72162e-06 1.41901e-01 -6.43262e-16
2.54947e-06 8.94322e-02 -2.96146e-16
0.00000e+00 0.00000e+00 0.00000e+00
0.00000e+00 0.00000e+00 0.00000e+00
-1.48886e-03 -8.80451e-02 -2.31134e-16
-5.21949e-03 -1.39592e-01 -3.80957e-16
-1.04221e-02 -1.63621e-01 -5.05771e-16
-1.62313e-02 -1.67331e-01 -7.11299e-16
-2.20256e-02 -1.56331e-01 -1.28670e-15
-2.73652e-02 -1.34947e-01 -6.11904e-16
-3.18101e-02 -1.06413e-01 -2.51035e-16
-3.51933e-02 -7.32573e-02 -1.89987e-16
-3.72598e-02 -3.72474e-02 -1.72102e-16
-3.79719e-02 -3.07765e-05 -4.93611e-16
-3.72684e-02 3.73085e-02 4.91200e-16
-3.51740e-02 7.31945e-02 1.18346e-16
-3.18337e-02 1.06471e-01 -3.59873e-16
-2.73314e-02 1.34888e-01 -9.09874e-16
-2.20554e-02 1.56383e-01 -1.01642e-15
-1.61988e-02 1.67287e-01 3.30960e-16
-1.04437e-02 1.63655e-01 -3.32721e-16
-5.20154e-03 1.39573e-01 -7.47718e-16
-1.49682e-03 8.80567e-02 -9.87162e-16
0.00000e+00 0.00000e+00 0.00000e+00
0.00000e+00 0.00000e+00 0.00000e+00
-2.96423e-03 -8.37668e-02 -6.40724e-16
-1.03077e-02 -1.32541e-01 1.77463e-16
-2.06343e-02 -1.55124e-01 -4.76942e-16
-3.19690e-02 -1.58447e-01 -1.56553e-16
-4.34538e-02 -1.47884e-01 -3.21704e-16
-5.37994e-02 -1.27535e-01 -6.78238e-16
-6.26169e-02 -1.00528e-01 -2.50715e-16
-6.91349e-02 -6.91290e-02 -3.70281e-17
-7.32525e-02 -3.51965e-02 -8.99592e-16
-7.45940e-02 2.73674e-05 -8.46460e-16
-7.32417e-02 3.51398e-02 1.26872e-16
-6.91537e-02 6.91836e-02 2.07548e-16
-6.25885e-02 1.00470e-01 3.49658e-17
-5.38314e-02 1.27584e-01 1.08786e-16
-4.34176e-02 1.47836e-01 8.23301e-17
-3.20010e-02 1.58488e-01 -2.09999e-16
-2.06072e-02 1.55097e-01 -5.96741e-16
-1.03254e-02 1.32564e-01 -7.56998e-16
-2.95416e-03 8.37600e-02 -1.20401e-15
0.00000e+00 0.00000e+00 0.00000e+00
0.00000e+00 0.00000e+00 0.00000e+00
-4.37034e-03 -7.68058e-02 -3.99930e-16
-1.51869e-02 -1.21184e-01 -1.16175e-15
-3.02381e-02 -1.41471e-01 -9.63028e-16
-4.67926e-02 -1.44203e-01 -1.73080e-15
-6.33701e-02 -1.34345e-01 -7.07414e-16
-7.84131e-02 -1.15705e-01 -8.93401e-16
-9.10701e-02 -9.10696e-02 -8.91917e-16
-1.00529e-01 -6.26122e-02 -7.95492e-16
-1.06422e-01 -3.18098e-02 -7.72562e-16
-1.08372e-01 -2.55332e-05 -6.66883e-16
-1.06432e-01 3.18584e-02 -1.30675e-16
-1.00508e-01 6.25608e-02 3.33727e-16
-9.11001e-02 9.11162e-02 5.32142e-16
-7.83781e-02 1.15656e-01 2.05304e-16
-6.34073e-02 1.34387e-01 -9.24817e-17
-4.67579e-02 1.44167e-01 -1.68386e-16
-3.02668e-02 1.41500e-01 2.86145e-17
-1.51664e-02 1.21169e-01 -1.02854e-15
-4.38114e-03 7.68171e-02 -9.79744e-16
0.00000e+00 0.00000e+00 0.00000e+00
0.00000e+00 0.00000e+00 0.00000e+00
-5.67051e-03 -6.71958e-02 -9.40828e-16
-1.95864e-02 -1.05568e-01 -1.22620e-15
-3.88643e-02 -1.22855e-01 -9.30797e-16
-5.98387e-02 -1.24880e-01 1.00198e-17
-8.08538e-02 -1.16075e-01 -3.58902e-16
-9.97467e-02 -9.97497e-02 -1.10191e-15
-1.15707e-01 -7.84045e-02 -6.20660e-16
-1.27537e-01 -5.38028e-02 -1.28088e-16
-1.34941e-01 -2.73585e-02 -5.81564e-17
-1.37388e-01 2.04592e-05 -5.34412e-16
-1.34932e-01 2.73141e-02 5.83412e-17
-1.27559e-01 5.38451e-02 2.10538e-16
-1.15677e-01 7.83600e-02 7.45255e-17
-9.97819e-02 9.97862e-02 5.89848e-17
-8.08164e-02 1.16038e-01 -5.16903e-16
-5.98749e-02 1.24913e-01 2.97846e-18
-3.88326e-02 1.22834e-01 -3.26337e-16
-1.96086e-02 1.05588e-01 -8.01452e-16
-5.65934e-03 6.71902e-02 -7.29006e-16
0.00000e+00 0.00000e+00 0.00000e+00
0.00000e+00 0.00000e+00 0.00000e+00
-6.76461e-03 -5.53949e-02 -3.04122e-16
-2.32196e-02 -8.66957e-02 3.10664e-16
-4.57459e-02 -1.00511e-01 -6.76390e-16
-7.01128e-02 -1.01825e-01 -5.78229e-16
-9.43315e-02 -9.43352e-02 6.17897e-16
-1.16079e-01 -8.08468e-02 -2.39502e-16
-1.34344e-01 -6.33759e-02 1.34623e-16
-1.47881e-01 -4.34434e-02 3.58310e-16
-1.56337e-01 -2.20304e-02 8.18065e-16
-1.59099e-01 -1.83136e-05 -6.95561e-17
-1.56348e-01 2.20658e-02 6.15458e-17
-1.47861e-01 4.34065e-02 -9.19526e-18
-1.34374e-01 6.34080e-02 -1.39806e-15
-1.16044e-01 8.08100e-02 1.40043e-16
-9.43693e-02 9.43663e-02 1.73245e-16
-7.00767e-02 1.01797e-01 2.76822e-16
-4.57779e-02 1.00535e-01 -8.33120e-17
-2.31981e-02 8.66843e-02 -4.49300e-16
-6.77603e-03 5.54041e-02 -7.53139e-16
0.00000e+00 0.00000e+00 0.00000e+00
0.00000e+00 0.00000e+00 0.00000e+00
-7.49545e-03 -4.17645e-02 -5.64302e-16
-2.55034e-02 -6.51342e-02 -2.67270e-16
-4.98957e-02 -7.52891e-02 -3.73373e-16
-7.59837e-02 -7.59864e-02 -4.77166e-16
-1.01827e-01 -7.01072e-02 -4.58915e-17
-1.24879e-01 -5.98440e-02 -4.30231e-18
-1.44203e-01 -4.67839e-02 -4.53719e-16
-1.58449e-01 -3.19755e-02 8.57747e-17
-1.67324e-01 -1.62215e-02 2.98449e-16
-1.70250e-01 1.38348e-05 2.95448e-16
-1.67315e-01 1.61922e-02 -4.45435e-16
-1.58467e-01 3.20020e-02 -4.10624e-16
-1.44176e-01 4.67531e-02 -3.10713e-16
-1.24912e-01 5.98690e-02 -7.08692e-17
-1.01794e-01 7.00810e-02 4.67320e-16
-7.60182e-02 7.60103e-02 -2.83865e-16
-4.98696e-02 7.52739e-02 -7.83745e-16
-2.55237e-02 6.51486e-02 -3.42766e-16
-7.48554e-03 4.17602e-02 -1.40849e-17
0.00000e+00 0.00000e+00 0.00000e+00
0.00000e+00 0.00000e+00 0.00000e+00
-7.61043e-03 -2.74679e-02 4.53861e-16
-2.56491e-02 -4.30534e-02 5.47487e-16
-4.97144e-02 -4.97158e-02 2.28334e-16
-7.52900e-02 -4.98936e-02 4.14543e-16
-1.00510e-01 -4.57498e-02 -3.22140e-16
-1.22855e-01 -3.88575e-02 -4.22802e-16
-1.41471e-01 -3.02431e-02 -4.33127e-16
-1.55120e-01 -2.06264e-02 -1.18668e-16
-1.63624e-01 -1.04260e-02 -5.49554e-16
-1.66378e-01 -1.12218e-05 9.44415e-16
-1.63631e-01 1.04458e-02 -9.36916e-17
-1.55106e-01 2.06037e-02 -5.70769e-16
-1.41493e-01 3.02623e-02 -2.61931e-16
-1.22832e-01 3.88361e-02 -8.06042e-17
-1.00540e-01 4.57687e-02 -4.19501e-16
-7.52669e-02 4.98774e-02 -2.81802e-16
-4.97378e-02 4.97303e-02 4.47307e-16
-2.56346e-02 4.30471e-02 3.81581e-16
-7.61918e-03 2.74733e-02 4.69729e-16
0.00000e+00 0.00000e+00 0.00000e+00
0.00000e+00 0.00000e+00 0.00000e+00
-6.71249e-03 -1.37880e-02 5.71744e-16
-2.22621e-02 -2.22624e-02 -3.02409e-16
-4.30542e-02 -2.56473e-02 4.42635e-17
-6.51342e-02 -2.55059e-02 -3.15299e-16
-8.66953e-02 -2.32159e-02 -9.17874e-17
-1.05569e-01 -1.95897e-02 -5.52852e-17
-1.21181e-01 -1.51822e-02 -1.49617e-15
-1.32542e-01 -1.03112e-02 -5.11193e-16
-1.39585e-01 -5.21402e-03 1.07579e-16
-1.41879e-01 6.74802e-06 2.72528e-16
-1.39581e-01 5.19901e-03 2.19475e-16
-1.32552e-01 1.03243e-02 -1.89525e-16
-1.21169e-01 1.51667e-02 4.64860e-18
-1.05588e-01 1.96034e-02 -1.11355e-16
-8.66788e-02 2.32029e-02 2.17987e-16
-6.51540e-02 2.55177e-02 9.81919e-17
-4.30411e-02 2.56397e-02 2.00626e-16
-2.22735e-02 2.22693e-02 1.75727e-16
-6.70667e-03 1.37857e-02 1.76194e-16
0.00000e+00 0.00000e+00 0.00000e+00
0.00000e+00 0.00000e+00 0.00000e+00
-3.85134e-03 -3.85150e-03 3.04602e-16
-1.37881e-02 -6.71176e-03 1.72997e-16
-2.74673e-02 -7.61179e-03 4.28902e-16
-4.17644e-02 -7.49417e-03 -2.28170e-16
-5.53945e-02 -6.76614e-03 -5.65831e-18
-6.71947e-02 -5.66808e-03 -3.45200e-16
-7.68063e-02 -4.37310e-03 -3.85895e-16
-8.37643e-02 -2.96104e-03 -3.00170e-16
-8.80451e-02 -1.49080e-03 2.66269e-16
-8.94356e-02 -3.30649e-06 -4.44311e-16
-8.80478e-02 1.49705e-03 -8.25909e-16
-8.37606e-02 2.95374e-03 -3.49547e-16
-7.68148e-02 4.37995e-03 8.40250e-17
-6.71881e-02 5.66055e-03 -6.17627e-16
-5.54064e-02 6.77301e-03 6.13974e-17
-4.17575e-02 7.48820e-03 -1.26767e-15
-2.74759e-02 7.61663e-03 4.75673e-16
-1.37835e-02 6.70911e-03 5.29617e-16
-3.85462e-03 3.85364e-03 -2.45325e-16
0.00000e+00 0.00000e+00 0.00000e+00
0.00000e+00 0.00000e+00 0.00000e+00
0.00000e+00 0.00000e+00 0.00000e+00
0.00000e+00 0.00000e+00 0.00000e+00
0.00000e+00 0.00000e+00 0.00000e+00
0.00000e+00 0.00000e+00 0.00000e+00
0.00000e+00 0.00000e+00 0.00000e+00
0.00000e+00 0.00000e+00 0.00000e+00
0.00000e+00 0.00000e+00 0.00000e+00
0.00000e+00 0.00000e+00 0.00000e+00
0.00000e+00 0.00000e+00 0.00000e+00
0.00000e+00 0.00000e+00 0.00000e+00
0.00000e+00 0.00000e+00 0.00000e+00
0.00000e+00 0.00000e+00 0.00000e+00
0.00000e+00 0.00000e+00 0.00000e+00
0.00000e+00 0.00000e+00 0.00000e+00
0.00000e+00 0.00000e+00 0.00000e+00
0.00000e+00 0.00000e+00 0.00000e+00
0.00000e+00 0.00000e+00 0.00000e+00
0.00000e+00 0.00000e+00 0.00000e+00
0.00000e+00 0.00000e+00 0.00000e+00
0.00000e+00 0.00000e+00 0.00000e+00
</DataArray>
<DataArray Name="Fiber" type="Float32" NumberOfComponents="3" format="ascii">
0.00000e+00 0.00000e+00 1.00000e+00
0.00000e+00 0.00000e+00 1.00000e+00
0.00000e+00 0.00000e+00 1.00000e+00
0.00000e+00 0.00000e+00 1.00000e+00
0.00000e+00 0.00000e+00 1.00000e+00
0.00000e+00 0.00000e+00 1.00000e+00
0.00000e+00 0.00000e+00 1.00000e+00
0.00000e+00 0.00000e+00 1.00000e+00
0.00000e+00 0.00000e+00 1.00000e+00
0.00000e+00 0.00000e+00 1.00000e+00
0.00000e+00 0.00000e+00 1.00000e+00
0.00000e+00 0.00000e+00 1.00000e+00
0.00000e+00 0.00000e+00 1.00000e+00
0.00000e+00 0.00000e+00 1.00000e+00
0.00000e+00 0.00000e+00 1.00000e+00
0.00000e+00 0.00000e+00 1.00000e+00
0.00000e+00 0.00000e+00 1.00000e+00
0.00000e+00 0.00000e+00 1.00000e+00
0.00000e+00 0.00000e+00 1.00000e+00
0.00000e+00 0.00000e+00 1.00000e+00
0.00000e+00 0.00000e+00 1.00000e+00
0.00000e+00 0.00000e+00 1.00000e+00
5.20676e-01 6.82154e-01 -5.08912e-01
3.41873e-01 5.20274e-01 7.86907e-01
1.30402e-01 4.75961e-01 -8.78222e-01
-1.52056e-01 -9.84857e-01 -1.03892e-01
6.79975e-02 -2.85451e-01 9.56444e-01
-1.08863e-01 -9.60327e-01 -2.56807e-01
-6.76513e-02 -9.94637e-01 -9.96318e-02
-2.66239e-02 -8.43317e-01 -5.37488e-01
1.93668e-02 9.52718e-01 3.01352e-01
2.10707e-02 7.16450e-02 -9.97487e-01
1.10077e-02 3.25388e-01 -9.44849e-01
-7.01427e-02 1.52396e-01 9.86256e-01
-8.19455e-02 9.67000e-01 2.49517e-01
1.00692e-01 -2.52632e-01 9.62291e-01
5.49785e-02 -9.85864e-01 1.62541e-01
-2.47152e-01 9.12919e-01 3.31068e-01
-1.16234e-01 8.03892e-01 -5.96026e-01
-2.70395e-01 3.11005e-01 -9.15226e-01
4.42123e-01 -6.85166e-01 -5.73992e-01
0.00000e+00 0.00000e+00 1.00000e+00
0.00000e+00 0.00000e+00 1.00000e+00
8.39144e-01 5.44536e-01 7.82608e-02
-3.45818e-02 7.52226e-02 1.00378e+00
-4.59085e-01 -8.41195e-01 -2.83552e-01
3.98653e-01 7.74736e-01 -4.92934e-01
-9.38798e-02 -6.58009e-01 7.47084e-01
2.40241e-01 9.63829e-01 1.07152e-02
-1.13130e-03 1.03998e-01 -9.87316e-01
2.55154e-02 5.32153e-01 8.41452e-01
2.27623e-02 9.90870e-01 -1.32826e-01
1.16000e-01 -4.64296e-01 8.78529e-01
6.86142e-03 6.15918e-01 -7.87878e-01
-2.05710e-01 4.74397e-01 -8.51418e-01
1.19748e-01 -9.85398e-01 -6.12407e-03
-1.90181e-01 7.42413e-01 6.29875e-01
-1.23177e-01 4.97007e-03 9.93234e-01
-4.64548e-01 8.51080e-01 2.49129e-01
3.45388e-01 -7.79220e-01 5.21551e-01
5.51759e-01 -6.81231e-01 4.95709e-01
3.80035e-01 -6.99708e-02 -9.26891e-01
0.00000e+00 0.00000e+00 1.00000e+00
0.00000e+00 0.00000e+00 1.00000e+00
-6.35134e-01 -1.70152e-01 -7.63048e-01
-8.88821e-01 -3.84371e-01 2.46556e-01
1.05476e-02 1.25814e-01 -9.92856e-01
2.47549e-01 2.96007e-01 9.21712e-01
4.82604e-01 6.87043e-01 5.31368e-01
-2.82429e-02 -4.81140e-01 8.69427e-01
-7.58476e-02 -4.60254e-01 -8.87561e-01
2.16620e-01 9.12847e-01 -3.40766e-01
9.97851e-02 8.84516e-01 4.54939e-01
1.61733e-01 5.82651e-01 -7.97164e-01
-2.75661e-02 8.04554e-01 5.92909e-01
-2.51790e-01 8.35446e-01 -4.87967e-01
-2.89815e-01 5.06965e-01 -8.15073e-01
-2.39707e-01 3.42055e-01 9.02682e-01
-6.10541e-01 7.11311e-01 3.25284e-01
-4.82212e-01 6.26893e-01 6.10560e-01
-5.83124e-01 5.85120e-01 -5.65175e-01
-4.15435e-01 3.69842e-01 8.30360e-01
-9.16997e-01 2.13686e-01 3.58921e-01
0.00000e+00 0.00000e+00 1.00000e+00
0.00000e+00 0.00000e+00 1.00000e+00
9.84111e-01 1.72053e-01 -7.79867e-02
-9.22284e-01 -3.03341e-01 2.43794e-01
2.15529e-01 3.48462e-01 9.11445e-01
-8.23501e-01 -5.43424e-01 -1.14966e-01
4.05712e-02 -1.92862e-01 9.75084e-01
-1.56590e-01 -8.18738e-01 -5.51640e-01
1.53864e-01 -3.11496e-01 -9.32797e-01
3.88785e-02 -7.24726e-01 -6.87202e-01
1.72088e-01 9.49595e-01 -2.67413e-01
1.36454e-01 9.89662e-01 5.08469e-02
3.73659e-02 5.11654e-01 -8.59934e-01
-2.76553e-01 6.29241e-01 7.25711e-01
-5.32251e-01 8.40854e-01 1.99080e-02
-8.28178e-02 -7.07122e-01 7.02182e-01
-1.67683e-02 7.29753e-02 9.91994e-01
7.63065e-01 -5.60542e-01 3.02301e-01
-4.62296e-01 5.18899e-01 -7.17999e-01
8.79592e-01 -2.71886e-01 3.92802e-01
8.38727e-01 -1.01897e-01 -5.38552e-01
0.00000e+00 0.00000e+00 1.00000e+00
0.00000e+00 0.00000e+00 1.00000e+00
-7.26904e-01 -6.74146e-02 6.83746e-01
9.27078e-01 3.70528e-01 4.76354e-02
-7.65308e-02 1.65510e-01 -9.77095e-01
1.90768e-01 5.99961e-01 7.70115e-01
-7.43728e-01 -4.33337e-01 -5.02195e-01
3.63547e-01 1.21988e-01 -9.24396e-01
5.10221e-02 -6.72636e-01 7.29158e-01
4.57839e-01 5.90214e-01 -6.59428e-01
1.75626e-01 3.74403e-01 9.07622e-01
1.21294e-01 -7.12705e-01 6.87490e-01
2.43046e-02 9.81645e-01 -1.74021e-01
1.14064e-01 -5.90250e-01 7.94788e-01
-5.50665e-01 5.46304e-01 6.20963e-01
3.43174e-01 -7.80126e-01 -5.24391e-01
4.28628e-01 -7.45295e-02 8.95862e-01
-5.81485e-01 8.06650e-01 -2.27324e-02
5.64337e-01 1.45038e-01 8.06280e-01
2.14722e-01 1.35302e-01 -9.66423e-01
4.43907e-01 3.32373e-02 -8.95460e-01
0.00000e+00 0.00000e+00 1.00000e+00
0.00000e+00 0.00000e+00 1.00000e+00
7.54057e-01 1.21385e-01 6.45696e-01
7.43269e-01 2.83539e-01 -5.95722e-01
6.42666e-01 5.25922e-01 -5.46526e-01
2.99165e-03 5.31215e-01 8.46714e-01
-6.88756e-01 6.38887e-03 -7.26146e-01
2.56773e-02 6.55818e-02 9.97951e-01
5.30853e-01 8.78933e-02 -8.42745e-01
6.26193e-01 6.48928e-01 4.30977e-01
1.52458e-01 5.67061e-01 8.07065e-01
2.29789e-01 -5.78675e-01 7.81229e-01
4.21203e-01 -7.92104e-01 4.37021e-01
-3.60997e-01 8.48104e-01 3.87841e-01
-8.00010e-01 5.23806e-01 -2.92588e-01
-1.14251e-02 4.17505e-02 9.98150e-01
8.33949e-01 -2.49158e-01 -4.93328e-01
-6.26165e-01 5.85122e-01 5.14345e-01
7.17276e-01 -1.49122e-02 -6.88204e-01
9.91205e-01 -7.22535e-02 -2.56572e-02
-5.81114e-01 8.35485e-02 -8.09757e-01
0.00000e+00 0.00000e+00 1.00000e+00
0.00000e+00 0.00000e+00 1.00000e+00
7.99242e-01 7.27777e-02 -5.99537e-01
-2.77057e-01 8.66454e-02 9.49562e-01
-6.54296e-01 1.13233e-01 -7.51250e-01
-2.13114e-01 1.78439e-01 -9.55765e-01
-2.66553e-01 -1.40149e-03 -9.56948e-01
-2.04097e-02 -3.82427e-01 -9.23642e-01
8.80743e-01 2.69579e-01 -3.77541e-01
1.48051e-01 -8.92197e-01 4.09062e-01
4.23383e-01 8.29285e-01 3.44626e-01
-9.37883e-03 9.19057e-01 3.75405e-01
1.74708e-01 4.72896e-01 -8.55224e-01
7.12853e-02 -5.25023e-01 -8.39125e-01
-3.99467e-01 -3.59468e-01 8.36588e-01
7.89032e-03 -1.81689e-01 -9.83861e-01
-8.77406e-01 2.02183e-01 -4.19427e-01
8.97069e-01 -4.21750e-01 -9.01768e-02
9.58088e-01 -2.61298e-01 -1.36512e-01
-8.02263e-01 9.64257e-02 -5.77156e-01
6.63005e-01 -5.68360e-02 7.49188e-01
0.00000e+00 0.00000e+00 1.00000e+00
0.00000e+00 0.00000e+00 1.00000e+00
-3.25477e-01 -2.96006e-02 9.45623e-01
7.57027e-01 -9.49384e-03 6.47133e-01
9.01868e-01 -3.63983e-02 4.25303e-01
-3.72581e-01 -2.56386e-01 8.91298e-01
7.10884e-01 5.77735e-02 6.95761e-01
6.62791e-01 -2.59859e-01 -7.01443e-01
6.85536e-01 -6.15123e-01 -3.70126e-01
9.72899e-01 8.25118e-02 -2.01603e-01
-2.89183e-01 -9.57950e-01 -1.33146e-02
1.32893e-01 -9.13896e-01 3.88907e-01
-2.45380e-02 -3.43590e-01 9.39358e-01
-9.79862e-01 1.36721e-01 -1.23081e-01
2.05611e-01 -8.84716e-01 3.99951e-01
4.79091e-01 -8.49002e-01 2.22351e-01
-9.23522e-01 -3.40556e-01 -1.54213e-01
-8.51790e-01 -1.71724e-01 4.93850e-01
8.66421e-01 -1.74770e-01 -4.60348e-01
3.35269e-01 -7.89557e-02 9.34527e-01
-6.46223e-01 1.62254e-02 7.63783e-01
0.00000e+00 0.00000e+00 1.00000e+00
0.00000e+00 0.00000e+00 1.00000e+00
-5.93612e-01 -2.90839e-02 8.03662e-01
9.85497e-01 -7.89956e-02 -1.50045e-01
9.78572e-01 -2.03926e-01 -1.98144e-02
-8.00767e-01 -4.71423e-01 -3.73103e-01
-5.14332e-01 -4.53255e-01 -7.24572e-01
6.23947e-01 4.69370e-02 -7.77620e-01
2.29378e-01 -5.14270e-01 8.17689e-01
4.45229e-01 -8.52151e-01 2.77341e-01
-1.06885e-01 -7.64080e-01 6.35344e-01
6.47771e-02 -1.41488e-01 -9.92576e-01
-9.30014e-01 3.36788e-01 -1.43683e-01
-9.53075e-01 -2.24617e-01 -2.05179e-01
-8.88234e-02 -7.04855e-01 -6.92835e-01
1.75886e-01 -6.61566e-01 -7.26527e-01
6.48419e-02 -3.61769e-01 -9.27526e-01
9.37788e-01 -2.02912e-01 2.86126e-01
-9.99048e-01 -2.09685e-02 2.88612e-02
8.40470e-01 -8.01023e-02 -5.36349e-01
3.21749e-01 -2.44224e-02 9.46233e-01
0.00000e+00 0.00000e+00 1.00000e+00
0.00000e+00 0.00000e+00 1.00000e+00
-8.66195e-01 -4.06449e-02 -4.98844e-01
2.23518e-01 -2.42795e-02 9.75296e-01
-3.94917e-01 -5.37070e-02 9.17782e-01
-9.97099e-01 -7.93260e-02 1.48284e-02
9.80085e-01 -6.58239e-02 1.73869e-01
8.23657e-01 -4.80891e-02 -5.62726e-01
6.97983e-01 -1.40839e-01 -6.91124e-01
9.85878e-01 -1.45718e-01 1.03092e-01
6.53738e-01 -5.44170e-01 -5.35859e-01
6.03462e-01 2.30056e-01 7.56131e-01
-8.54437e-01 4.54133e-01 -2.70719e-01
-9.57366e-01 4.48964e-02 -2.91021e-01
-9.62293e-01 -9.71047e-02 2.23094e-01
6.66817e-01 -2.23123e-01 7.08916e-01
9.78432e-01 6.52175e-02 -1.86344e-01
1.12102e-01 1.06346e-03 9.95578e-01
9.60391e-01 -4.81306e-02 -2.76836e-01
5.99821e-01 -7.74428e-02 7.98930e-01
7.72613e-01 -2.06041e-03 -6.35538e-01
0.00000e+00 0.00000e+00 1.00000e+00
0.00000e+00 0.00000e+00 1.00000e+00
8.16830e-01 3.93035e-02 5.74585e-01
8.76543e-01 2.77895e-02 4.80465e-01
-9.92558e-01 1.20062e-01 3.97428e-03
1.23215e-01 -2.22831e-02 -9.93418e-01
9.97618e-01 2.73841e-03 1.79776e-02
8.29369e-01 2.33558e-01 5.05756e-01
3.96668e-01 7.26269e-01 -5.48504e-01
-4.09979e-01 7.20879e-01 -5.60648e-01
2.76678e-01 5.35334e-01 7.97938e-01
6.75477e-01 7.32168e-01 1.36826e-01
1.32820e-01 3.37635e-01 -9.31918e-01
1.17204e-02 6.87894e-01 7.26454e-01
5.50998e-02 4.85187e-01 8.64197e-01
-9.62582e-01 1.73706e-01 1.99459e-01
-9.93202e-01 -7.29633e-02 -5.92044e-02
-4.74091e-01 -2.42909e-02 8.81510e-01
-4.89461e-01 4.60399e-02 8.70461e-01
-7.51003e-01 6.45546e-02 -6.57532e-01
3.39055e-01 -1.82912e-02 -9.40309e-01
0.00000e+00 0.00000e+00 1.00000e+00
0.00000e+00 0.00000e+00 1.00000e+00
-9.61024e-01 -2.68119e-04 2.77775e-01
9.34451e-01 -8.59985e-02 3.33875e-01
-1.49797e-01 -1.23143e-02 -9.88196e-01
9.97951e-01 -5.59017e-02 -9.05168e-03
-3.55412e-01 4.33879e-01 8.23840e-01
5.26664e-01 3.75594e-01 -7.61408e-01
1.95810e-01 3.30833e-01 9.15251e-01
-1.06830e-02 6.08435e-01 -7.88931e-01
-5.13937e-01 7.43755e-01 -4.30219e-01
6.76851e-01 6.32278e-01 -3.82139e-01
5.00188e-01 8.35339e-01 -2.30620e-01
-4.34434e-01 3.81298e-01 -8.12394e-01
-8.92424e-01 4.25047e-01 -9.33807e-02
-4.69609e-01 2.14335e-01 -8.56005e-01
7.08417e-01 4.72935e-01 5.16863e-01
8.88627e-01 2.63235e-01 3.74188e-01
1.91317e-01 1.28439e-01 -9.69619e-01
-9.49144e-01 -3.20680e-03 -3.01736e-01
9.68678e-01 1.10111e-01 -2.25116e-01
0.00000e+00 0.00000e+00 1.00000e+00
0.00000e+00 0.00000e+00 1.00000e+00
4.10414e-01 -4.64536e-02 9.12978e-01
8.53101e-01 -2.24435e-01 -4.54929e-01
2.53353e-01 -1.28761e-01 -9.61659e-01
5.33893e-01 -1.46175e-01 8.26812e-01
2.49968e-01 2.71802e-01 -9.22439e-01
9.45604e-01 -9.33231e-02 -3.10001e-01
-3.64871e-01 4.95206e-01 -7.80989e-01
-1.74968e-01 -5.00174e-01 8.39514e-01
6.19804e-01 -7.63142e-01 -1.38176e-01
3.69644e-01 -8.59712e-01 -3.30560e-01
6.05980e-01 6.78103e-01 -3.98526e-01
-4.77924e-01 -3.52201e-01 7.95593e-01
-4.02593e-01 1.97888e-01 -8.89270e-01
5.83120e-01 8.12531e-01 -9.63867e-03
5.39835e-01 3.61059e-01 -7.51553e-01
4.74097e-01 2.84052e-01 8.27572e-01
3.59411e-02 2.44879e-02 1.00147e+00
8.48421e-01 1.66917e-01 4.88363e-01
-7.74770e-01 2.95886e-02 -6.34723e-01
0.00000e+00 0.00000e+00 1.00000e+00
0.00000e+00 0.00000e+00 1.00000e+00
-7.84219e-01 8.36327e-02 6.14601e-01
2.72640e-01 -8.62873e-04 9.53514e-01
8.75082e-01 -3.78431e-01 -2.88720e-01
8.21435e-01 -5.23809e-01 -2.23703e-01
7.77535e-01 -3.70451e-01 -5.09961e-01
-5.06999e-01 8.38022e-01 -1.97967e-01
3.61315e-01 -9.14784e-01 -1.77951e-01
-1.42554e-01 -6.50680e-01 -7.44617e-01
-2.72130e-02 -1.28307e-01 -9.90473e-01
2.54877e-01 -7.04554e-01 -6.60583e-01
1.11483e-01 -9.51682e-01 -2.78933e-01
2.58089e-01 7.31444e-01 -6.30922e-01
1.31986e-01 8.94737e-01 -4.27086e-01
-6.79584e-01 -6.61935e-01 3.20020e-01
-5.55495e-01 -4.52358e-01 -6.98889e-01
-3.18450e-01 -2.15772e-01 9.22250e-01
-9.29373e-01 -2.12075e-01 -2.82328e-01
1.19347e-01 1.83606e-03 9.86825e-01
-9.66727e-01 -1.47460e-01 2.09729e-01
0.00000e+00 0.00000e+00 1.00000e+00
0.00000e+00 0.00000e+00 1.00000e+00
-9.98024e-01 7.37322e-02 8.03878e-03
-7.04809e-01 1.10560e-01 -7.02052e-01
-7.19656e-01 2.05520e-01 -6.49848e-01
-5.82524e-01 4.17683e-01 -6.89208e-01
3.24347e-01 9.97060e-02 -9.36235e-01
5.50905e-01 -3.66427e-01 -7.51084e-01
3.81972e-01 -9.17142e-01 -4.95702e-03
-3.91875e-01 5.86649e-02 9.14575e-01
-5.56950e-02 -7.85151e-01 -6.13117e-01
7.41034e-02 -1.45245e-01 -9.84131e-01
-1.49191e-01 -9.14752e-01 3.67712e-01
2.33013e-01 6.21199e-01 -7.43328e-01
-1.60600e-01 -3.31747e-01 9.22381e-01
-2.98711e-01 -1.56561e-01 -9.42258e-01
-6.60285e-01 -7.40441e-01 -1.01847e-01
-7.70054e-01 -5.36205e-01 -3.29803e-01
9.32561e-01 3.43228e-01 2.97570e-02
-9.12282e-01 -2.57745e-01 -3.15744e-01
-6.14331e-01 -9.19210e-02 -7.83624e-01
0.00000e+00 0.00000e+00 1.00000e+00
0.00000e+00 0.00000e+00 1.00000e+00
8.60032e-01 -2.74891e-01 4.34610e-01
8.08682e-01 -5.73843e-01 -1.39338e-01
5.17221e-01 -5.75780e-01 -6.31391e-01
2.78504e-01 -5.19934e-02 -9.52459e-01
-2.33397e-01 9.20552e-01 2.94721e-01
-9.61978e-02 5.35821e-01 8.38313e-01
1.61861e-01 -4.90091e-01 -8.50629e-01
-1.62240e-01 -8.56299e-01 4.89562e-01
-1.76856e-01 7.11352e-01 -6.82027e-01
-4.55366e-03 -7.94163e-01 6.07878e-01
-1.14417e-01 -5.46340e-01 8.31316e-01
-2.03172e-01 -6.46577e-01 -7.34439e-01
3.27562e-01 8.30777e-01 4.39070e-01
-3.36719e-01 -8.91273e-01 3.01382e-01
-1.66790e-01 -1.25374e-01 -9.72469e-01
-6.81764e-01 -7.18946e-01 -6.76675e-02
5.47461e-01 1.58079e-01 -8.21030e-01
-3.82111e-01 -2.75391e-01 -8.83255e-01
-1.36657e-01 -6.36534e-02 -9.90756e-01
0.00000e+00 0.00000e+00 1.00000e+00
0.00000e+00 0.00000e+00 1.00000e+00
7.33139e-01 -2.60530e-01 -6.40472e-01
4.38276e-02 -1.47502e-01 -9.86961e-01
-2.31027e-01 2.61288e-01 9.38297e-01
2.91788e-01 -4.94095e-02 -9.54051e-01
4.35092e-01 -2.12732e-01 -8.64884e-01
2.44140e-01 -3.84389e-01 -8.85913e-01
-6.05234e-02 -3.64774e-01 -9.32115e-01
-3.35993e-01 9.10214e-01 -2.39760e-01
4.23715e-02 -8.38782e-01 5.42670e-01
-2.47312e-02 8.82721e-01 4.70408e-01
-3.92760e-02 8.29819e-01 5.55862e-01
-1.29363e-01 -8.13953e-01 5.60840e-01
4.02573e-02 -9.07418e-02 9.97500e-01
9.30726e-02 -3.12434e-01 -9.39196e-01
2.94464e-01 8.92396e-01 3.24244e-01
3.96689e-01 8.55196e-01 -3.31712e-01
2.62635e-01 1.67744e-01 -9.50995e-01
-6.40652e-01 -6.53467e-01 -4.01916e-01
9.38079e-01 1.54713e-01 3.32565e-01
0.00000e+00 0.00000e+00 1.00000e+00
0.00000e+00 0.00000e+00 1.00000e+00
5.11895e-01 -3.50203e-01 -7.88352e-01
-4.02104e-01 2.51535e-01 8.89182e-01
2.69623e-01 -1.84375e-01 -9.43899e-01
3.43514e-01 -5.10822e-01 -7.89863e-01
-8.04946e-02 9.75354e-01 2.09534e-01
2.56696e-01 -9.50800e-01 1.16980e-01
-6.94340e-02 -7.65924e-01 -6.27471e-01
-3.01268e-02 -9.41718e-02 -9.91157e-01
3.65804e-02 6.18797e-01 7.84565e-01
1.18895e-02 9.16550e-01 4.00834e-01
-5.25666e-02 7.14806e-01 6.97749e-01
7.94465e-02 9.76009e-01 -1.82435e-01
2.25494e-01 8.02414e-01 -5.39986e-01
-9.72368e-02 -5.53853e-01 8.19639e-01
-2.91248e-01 -9.41950e-01 -1.62459e-01
-4.58917e-01 -7.81713e-01 -4.24793e-01
-6.05325e-01 -7.58268e-01 2.39795e-01
-7.34464e-01 -6.84563e-01 8.13214e-02
2.04738e-01 -3.63745e-02 -9.81644e-01
0.00000e+00 0.00000e+00 1.00000e+00
0.00000e+00 0.00000e+00 1.00000e+00
-6.78856e-01 7.29155e-01 -6.03624e-02
3.46150e-01 -3.39707e-01 -8.78059e-01
2.36874e-01 -6.63752e-01 -7.20541e-01
2.72985e-01 -9.64034e-01 1.05339e-02
-8.97785e-03 4.47118e-01 8.95118e-01
1.35568e-01 -5.40944e-01 8.30162e-01
-7.19602e-03 -1.00136e+00 -3.61869e-02
-9.73482e-02 9.69288e-01 2.27318e-01
5.78614e-02 -4.39510e-01 -8.95762e-01
-7.47094e-03 -2.90351e-01 -9.57294e-01
-3.48840e-02 -9.92972e-01 1.11633e-01
4.07689e-02 8.37525e-01 5.45823e-01
9.24006e-02 9.97197e-01 2.89839e-02
5.33137e-02 1.00130e-01 9.93853e-01
-2.14398e-01 -8.64715e-01 4.54042e-01
-1.53532e-01 -9.75039e-01 -1.72902e-01
1.43363e-01 9.71099e-01 2.24394e-01
-2.41618e-01 -1.43125e-01 -9.63089e-01
-1.04309e-01 -7.45033e-02 -9.88841e-01
0.00000e+00 0.00000e+00 1.00000e+00
0.00000e+00 0.00000e+00 1.00000e+00
0.00000e+00 0.00000e+00 1.00000e+00
0.00000e+00 0.00000e+00 1.00000e+00
0.00000e+00 0.00000e+00 1.00000e+00
0.00000e+00 0.00000e+00 1.00000e+00
0.00000e+00 0.00000e+00 1.00000e+00
0.00000e+00 0.00000e+00 1.00000e+00
0.00000e+00 0.00000e+00 1.00000e+00
0.00000e+00 0.00000e+00 1.00000e+00
0.00000e+00 0.00000e+00 1.00000e+00
0.00000e+00 0.00000e+00 1.00000e+00
0.00000e+00 0.00000e+00 1.00000e+00
0.00000e+00 0.00000e+00 1.00000e+00
0.00000e+00 0.00000e+00 1.00000e+00
0.00000e+00 0.00000e+00 1.00000e+00
0.00000e+00 0.00000e+00 1.00000e+00
0.00000e+00 0.00000e+00 1.00000e+00
0.00000e+00 0.00000e+00 1.00000e+00
0.00000e+00 0.00000e+00 1.00000e+00
0.00000e+00 0.00000e+00 1.00000e+00
0.00000e+00 0.00000e+00 1.00000e+00
</DataArray>
<DataArray Name="Disp_FEM" type="Float32" NumberOfComponents="3" format="ascii">
0.00000e+00 0.00000e+00 0.00000e+00
0.00000e+00 0.00000e+00 0.00000e+00
0.00000e+00 0.00000e+00 0.00000e+00
0.00000e+00 0.00000e+00 0.00000e+00
0.00000e+00 0.00000e+00 0.00000e+00
0.00000e+00 0.00000e+00 0.00000e+00
0.00000e+00 0.00000e+00 0.00000e+00
0.00000e+00 0.00000e+00 0.00000e+00
0.00000e+00 0.00000e+00 0.00000e+00
0.00000e+00 0.00000e+00 0.00000e+00
0.00000e+00 0.00000e+00 0.00000e+00
0.00000e+00 0.00000e+00 0.00000e+00
0.00000e+00 0.00000e+00 0.00000e+00
0.00000e+00 0.00000e+00 0.00000e+00
0.00000e+00 0.00000e+00 0.00000e+00
0.00000e+00 0.00000e+00 0.00000e+00
0.00000e+00 0.00000e+00 0.00000e+00
0.00000e+00 0.00000e+00 0.00000e+00
0.00000e+00 0.00000e+00 0.00000e+00
0.00000e+00 0.00000e+00 0.00000e+00
0.00000e+00 0.00000e+00 0.00000e+00
0.00000e+00 0.00000e+00 0.00000e+00
-1.86370e-21 -1.86370e-21 -9.22329e-05
-2.94950e-21 -4.30693e-21 -3.48020e-04
-3.40390e-21 -7.53324e-21 -6.93253e-04
-3.45570e-21 -1.09252e-20 -1.05715e-03
-3.22891e-21 -1.41822e-20 -1.40042e-03
-2.79407e-21 -1.70489e-20 -1.69964e-03
-2.21365e-21 -1.93950e-20 -1.94122e-03
-1.52927e-21 -2.11191e-20 -2.11762e-03
-7.80534e-22 -2.21747e-20 -2.22473e-03
7.80051e-35 -2.25277e-20 -2.26063e-03
7.80534e-22 -2.21747e-20 -2.22473e-03
1.52927e-21 -2.11191e-20 -2.11762e-03
2.21365e-21 -1.93950e-20 -1.94122e-03
2.79407e-21 -1.70489e-20 -1.69964e-03
3.22891e-21 -1.41822e-20 -1.40042e-03
3.45570e-21 -1.09252e-20 -1.05715e-03
3.40390e-21 -7.53324e-21 -6.93253e-04
2.94950e-21 -4.30693e-21 -3.48020e-04
1.86370e-21 -1.86370e-21 -9.22329e-05
0.00000e+00 0.00000e+00 0.00000e+00
0.00000e+00 0.00000e+00 0.00000e+00
-4.30693e-21 -2.94950e-21 -3.48020e-04
-6.99031e-21 -6.99031e-21 -1.25472e-03
-8.07261e-21 -1.18008e-20 -2.45790e-03
-8.13881e-21 -1.70148e-20 -3.74115e-03
-7.52052e-21 -2.20921e-20 -4.96252e-03
-6.44865e-21 -2.66665e-20 -6.03511e-03
-5.06443e-21 -3.04492e-20 -6.90605e-03
-3.47865e-21 -3.32680e-20 -7.54449e-03
-1.76823e-21 -3.49975e-20 -7.93318e-03
9.51306e-34 -3.55834e-20 -8.06360e-03
1.76823e-21 -3.49975e-20 -7.93318e-03
3.47865e-21 -3.32680e-20 -7.54449e-03
5.06443e-21 -3.04492e-20 -6.90605e-03
6.44865e-21 -2.66665e-20 -6.03511e-03
7.52052e-21 -2.20921e-20 -4.96252e-03
8.13881e-21 -1.70148e-20 -3.74115e-03
8.07261e-21 -1.18008e-20 -2.45790e-03
6.99031e-21 -6.99031e-21 -1.25472e-03
4.30693e-21 -2.94950e-21 -3.48020e-04
0.00000e+00 0.00000e+00 0.00000e+00
0.00000e+00 0.00000e+00 0.00000e+00
-7.53324e-21 -3.40390e-21 -6.93253e-04
-1.18008e-20 -8.07261e-21 -2.45790e-03
-1.36759e-20 -1.36759e-20 -4.77525e-03
-1.37530e-20 -1.96145e-20 -7.26177e-03
-1.26734e-20 -2.55098e-20 -9.64849e-03
-1.08164e-20 -3.08593e-20 -1.17593e-02
-8.46427e-21 -3.53528e-20 -1.34831e-02
-5.79335e-21 -3.87158e-20 -1.47519e-02
-2.93965e-21 -4.08015e-20 -1.55264e-02
1.42917e-34 -4.15025e-20 -1.57866e-02
2.93965e-21 -4.08015e-20 -1.55264e-02
5.79335e-21 -3.87158e-20 -1.47519e-02
8.46427e-21 -3.53528e-20 -1.34831e-02
1.08164e-20 -3.08593e-20 -1.17593e-02
1.26734e-20 -2.55098e-20 -9.64849e-03
1.37530e-20 -1.96145e-20 -7.26177e-03
1.36759e-20 -1.36759e-20 -4.77525e-03
1.18008e-20 -8.07261e-21 -2.45790e-03
7.53324e-21 -3.40390e-21 -6.93253e-04
0.00000e+00 0.00000e+00 0.00000e+00
0.00000e+00 0.00000e+00 0.00000e+00
-1.09252e-20 -3.45570e-21 -1.05715e-03
-1.70148e-20 -8.13881e-21 -3.74115e-03
-1.96145e-20 -1.37530e-20 -7.26177e-03
-1.97752e-20 -1.97752e-20 -1.10517e-02
-1.82145e-20 -2.57258e-20 -1.47101e-02
-1.55440e-20 -3.12010e-20 -1.79634e-02
-1.21462e-20 -3.58150e-20 -2.06323e-02
-8.30721e-21 -3.93073e-20 -2.26035e-02
-4.21072e-21 -4.14711e-20 -2.38096e-02
2.29926e-33 -4.22086e-20 -2.42153e-02
4.21072e-21 -4.14711e-20 -2.38096e-02
8.30721e-21 -3.93073e-20 -2.26035e-02
1.21462e-20 -3.58150e-20 -2.06323e-02
1.55440e-20 -3.12010e-20 -1.79634e-02
1.82145e-20 -2.57258e-20 -1.47101e-02
1.97752e-20 -1.97752e-20 -1.10517e-02
1.96145e-20 -1.37530e-20 -7.26177e-03
1.70148e-20 -8.13881e-21 -3.74115e-03
1.09252e-20 -3.45570e-21 -1.05715e-03
0.00000e+00 0.00000e+00 0.00000e+00
0.00000e+00 0.00000e+00 0.00000e+00
-1.41822e-20 -3.22891e-21 -1.40042e-03
-2.20921e-20 -7.52052e-21 -4.96252e-03
-2.55098e-20 -1.26734e-20 -9.64849e-03
-2.57258e-20 -1.82145e-20 -1.47101e-02
-2.37496e-20 -2.37496e-20 -1.96156e-02
-2.02778e-20 -2.88405e-20 -2.39956e-02
-1.58580e-20 -3.31751e-20 -2.76012e-02
-1.08436e-20 -3.64563e-20 -3.02714e-02
-5.49773e-21 -3.85083e-20 -3.19081e-02
-1.01871e-34 -3.92003e-20 -3.24591e-02
5.49773e-21 -3.85083e-20 -3.19081e-02
1.08436e-20 -3.64563e-20 -3.02714e-02
1.58580e-20 -3.31751e-20 -2.76012e-02
2.02778e-20 -2.88405e-20 -2.39956e-02
2.37496e-20 -2.37496e-20 -1.96156e-02
2.57258e-20 -1.82145e-20 -1.47101e-02
2.55098e-20 -1.26734e-20 -9.64849e-03
2.20921e-20 -7.52052e-21 -4.96252e-03
1.41822e-20 -3.22891e-21 -1.40042e-03
0.00000e+00 0.00000e+00 0.00000e+00
0.00000e+00 0.00000e+00 0.00000e+00
-1.70489e-20 -2.79407e-21 -1.69964e-03
-2.66665e-20 -6.44865e-21 -6.03511e-03
-3.08593e-20 -1.08164e-20 -1.17593e-02
-3.12010e-20 -1.55440e-20 -1.79634e-02
-2.88405e-20 -2.02778e-20 -2.39956e-02
-2.46711e-20 -2.46711e-20 -2.93975e-02
-1.93069e-20 -2.84097e-20 -3.38558e-02
-1.32140e-20 -3.12628e-20 -3.71642e-02
-6.69991e-21 -3.30409e-20 -3.91949e-02
1.32030e-33 -3.36492e-20 -3.98790e-02
6.69991e-21 -3.30409e-20 -3.91949e-02
1.32140e-20 -3.12628e-20 -3.71642e-02
1.93069e-20 -2.84097e-20 -3.38558e-02
2.46711e-20 -2.46711e-20 -2.93975e-02
2.88405e-20 -2.02778e-20 -2.39956e-02
3.12010e-20 -1.55440e-20 -1.79634e-02
3.08593e-20 -1.08164e-20 -1.17593e-02
2.66665e-20 -6.44865e-21 -6.03511e-03
1.70489e-20 -2.79407e-21 -1.69964e-03
0.00000e+00 0.00000e+00 0.00000e+00
0.00000e+00 0.00000e+00 0.00000e+00
-1.93950e-20 -2.21365e-21 -1.94122e-03
-3.04492e-20 -5.06443e-21 -6.90605e-03
-3.53528e-20 -8.46427e-21 -1.34831e-02
-3.58150e-20 -1.21462e-20 -2.06323e-02
-3.31751e-20 -1.58580e-20 -2.76012e-02
-2.84097e-20 -1.93069e-20 -3.38558e-02
-2.22628e-20 -2.22628e-20 -3.90276e-02
-1.52441e-20 -2.45139e-20 -4.28710e-02
-7.73430e-21 -2.59276e-20 -4.52324e-02
-6.80398e-33 -2.64053e-20 -4.60284e-02
7.73430e-21 -2.59276e-20 -4.52324e-02
1.52441e-20 -2.45139e-20 -4.28710e-02
2.22628e-20 -2.22628e-20 -3.90276e-02
2.84097e-20 -1.93069e-20 -3.38558e-02
3.31751e-20 -1.58580e-20 -2.76012e-02
3.58150e-20 -1.21462e-20 -2.06323e-02
3.53528e-20 -8.46427e-21 -1.34831e-02
3.04492e-20 -5.06443e-21 -6.90605e-03
1.93950e-20 -2.21365e-21 -1.94122e-03
0.00000e+00 0.00000e+00 0.00000e+00
0.00000e+00 0.00000e+00 0.00000e+00
-2.11191e-20 -1.52927e-21 -2.11762e-03
-3.32680e-20 -3.47865e-21 -7.54449e-03
-3.87158e-20 -5.79335e-21 -1.47519e-02
-3.93073e-20 -8.30721e-21 -2.26035e-02
-3.64563e-20 -1.08436e-20 -3.02714e-02
-3.12628e-20 -1.32140e-20 -3.71642e-02
-2.45139e-20 -1.52441e-20 -4.28710e-02
-1.67995e-20 -1.67995e-20 -4.71162e-02
-8.52462e-21 -1.77716e-20 -4.97263e-02
-5.88378e-33 -1.81048e-20 -5.06064e-02
8.52462e-21 -1.77716e-20 -4.97263e-02
1.67995e-20 -1.67995e-20 -4.71162e-02
2.45139e-20 -1.52441e-20 -4.28710e-02
3.12628e-20 -1.32140e-20 -3.71642e-02
3.64563e-20 -1.08436e-20 -3.02714e-02
3.93073e-20 -8.30721e-21 -2.26035e-02
3.87158e-20 -5.79335e-21 -1.47519e-02
3.32680e-20 -3.47865e-21 -7.54449e-03
2.11191e-20 -1.52927e-21 -2.11762e-03
0.00000e+00 0.00000e+00 0.00000e+00
0.00000e+00 0.00000e+00 0.00000e+00
-2.21747e-20 -7.80534e-22 -2.22473e-03
-3.49975e-20 -1.76823e-21 -7.93318e-03
-4.08015e-20 -2.93965e-21 -1.55264e-02
-4.14711e-20 -4.21072e-21 -2.38096e-02
-3.85083e-20 -5.49773e-21 -3.19081e-02
-3.30409e-20 -6.69991e-21 -3.91949e-02
-2.59276e-20 -7.73430e-21 -4.52324e-02
-1.77716e-20 -8.52462e-21 -4.97263e-02
-9.02181e-21 -9.02181e-21 -5.24905e-02
-6.56298e-33 -9.18991e-21 -5.34227e-02
9.02181e-21 -9.02181e-21 -5.24905e-02
1.77716e-20 -8.52462e-21 -4.97263e-02
2.59276e-20 -7.73430e-21 -4.52324e-02
3.30409e-20 -6.69991e-21 -3.91949e-02
3.85083e-20 -5.49773e-21 -3.19081e-02
4.14711e-20 -4.21072e-21 -2.38096e-02
4.08015e-20 -2.93965e-21 -1.55264e-02
3.49975e-20 -1.76823e-21 -7.93318e-03
2.21747e-20 -7.80534e-22 -2.22473e-03
0.00000e+00 0.00000e+00 0.00000e+00
0.00000e+00 0.00000e+00 0.00000e+00
-2.25277e-20 -7.10512e-34 -2.26063e-03
-3.55834e-20 -1.74042e-33 -8.06360e-03
-4.15025e-20 -3.91535e-33 -1.57866e-02
-4.22086e-20 -5.47729e-33 -2.42153e-02
-3.92003e-20 -4.87073e-33 -3.24591e-02
-3.36492e-20 -7.44442e-33 -3.98790e-02
-2.64053e-20 -8.53385e-33 -4.60284e-02
-1.81048e-20 -5.22730e-33 -5.06064e-02
-9.18991e-21 -1.85744e-33 -5.34227e-02
-7.45696e-33 -5.33448e-34 -5.43725e-02
9.18991e-21 -1.39378e-33 -5.34227e-02
1.81048e-20 1.21543e-33 -5.06064e-02
2.64053e-20 -2.33358e-33 -4.60284e-02
3.36492e-20 -3.51030e-33 -3.98790e-02
3.92003e-20 -3.36558e-33 -3.24591e-02
4.22086e-20 -4.51544e-33 -2.42153e-02
4.15025e-20 -2.47114e-33 -1.57866e-02
3.55834e-20 -1.83935e-33 -8.06360e-03
2.25277e-20 -6.77557e-34 -2.26063e-03
0.00000e+00 0.00000e+00 0.00000e+00
0.00000e+00 0.00000e+00 0.00000e+00
-2.21747e-20 7.80534e-22 -2.22473e-03
-3.49975e-20 1.76823e-21 -7.93318e-03
-4.08015e-20 2.93965e-21 -1.55264e-02
-4.14711e-20 4.21072e-21 -2.38096e-02
-3.85083e-20 5.49773e-21 -3.19081e-02
-3.30409e-20 6.69991e-21 -3.91949e-02
-2.59276e-20 7.73430e-21 -4.52324e-02
-1.77716e-20 8.52462e-21 -4.97263e-02
-9.02181e-21 9.02181e-21 -5.24905e-02
-6.98527e-33 9.18991e-21 -5.34227e-02
9.02181e-21 9.02181e-21 -5.24905e-02
1.77716e-20 8.52462e-21 -4.97263e-02
2.59276e-20 7.73430e-21 -4.52324e-02
3.30409e-20 6.69991e-21 -3.91949e-02
3.85083e-20 5.49773e-21 -3.19081e-02
4.14711e-20 4.21072e-21 -2.38096e-02
4.08015e-20 2.93965e-21 -1.55264e-02
3.49975e-20 1.76823e-21 -7.93318e-03
2.21747e-20 7.80534e-22 -2.22473e-03
0.00000e+00 0.00000e+00 0.00000e+00
0.00000e+00 0.00000e+00 0.00000e+00
-2.11191e-20 1.52927e-21 -2.11762e-03
-3.32680e-20 3.47865e-21 -7.54449e-03
-3.87158e-20 5.79335e-21 -1.47519e-02
-3.93073e-20 8.30721e-21 -2.26035e-02
-3.64563e-20 1.08436e-20 -3.02714e-02
-3.12628e-20 1.32140e-20 -3.71642e-02
-2.45139e-20 1.52441e-20 -4.28710e-02
-1.67995e-20 1.67995e-20 -4.71162e-02
-8.52462e-21 1.77716e-20 -4.97263e-02
-6.31671e-33 1.81048e-20 -5.06064e-02
8.52462e-21 1.77716e-20 -4.97263e-02
1.67995e-20 1.67995e-20 -4.71162e-02
2.45139e-20 1.52441e-20 -4.28710e-02
3.12628e-20 1.32140e-20 -3.71642e-02
3.64563e-20 1.08436e-20 -3.02714e-02
3.93073e-20 8.30721e-21 -2.26035e-02
3.87158e-20 5.79335e-21 -1.47519e-02
3.32680e-20 3.47865e-21 -7.54449e-03
2.11191e-20 1.52927e-21 -2.11762e-03
0.00000e+00 0.00000e+00 0.00000e+00
0.00000e+00 0.00000e+00 0.00000e+00
-1.93950e-20 2.21365e-21 -1.94122e-03
-3.04492e-20 5.06443e-21 -6.90605e-03
-3.53528e-20 8.46427e-21 -1.34831e-02
-3.58150e-20 1.21462e-20 -2.06323e-02
-3.31751e-20 1.58580e-20 -2.76012e-02
-2.84097e-20 1.93069e-20 -3.38558e-02
-2.22628e-20 2.22628e-20 -3.90276e-02
-1.52441e-20 2.45139e-20 -4.28710e-02
-7.73430e-21 2.59276e-20 -4.52324e-02
-4.94109e-34 2.64053e-20 -4.60284e-02
7.73430e-21 2.59276e-20 -4.52324e-02
1.52441e-20 2.45139e-20 -4.28710e-02
2.22628e-20 2.22628e-20 -3.90276e-02
2.84097e-20 1.93069e-20 -3.38558e-02
3.31751e-20 1.58580e-20 -2.76012e-02
3.58150e-20 1.21462e-20 -2.06323e-02
3.53528e-20 8.46427e-21 -1.34831e-02
3.04492e-20 5.06443e-21 -6.90605e-03
1.93950e-20 2.21365e-21 -1.94122e-03
0.00000e+00 0.00000e+00 0.00000e+00
0.00000e+00 0.00000e+00 0.00000e+00
-1.70489e-20 2.79407e-21 -1.69964e-03
-2.66665e-20 6.44865e-21 -6.03511e-03
-3.08593e-20 1.08164e-20 -1.17593e-02
-3.12010e-20 1.55440e-20 -1.79634e-02
-2.88405e-20 2.02778e-20 -2.39956e-02
-2.46711e-20 2.46711e-20 -2.93975e-02
-1.93069e-20 2.84097e-20 -3.38558e-02
-1.32140e-20 3.12628e-20 -3.71642e-02
-6.69991e-21 3.30409e-20 -3.91949e-02
-2.20053e-34 3.36492e-20 -3.98790e-02
6.69991e-21 3.30409e-20 -3.91949e-02
1.32140e-20 3.12628e-20 -3.71642e-02
1.93069e-20 2.84097e-20 -3.38558e-02
2.46711e-20 2.46711e-20 -2.93975e-02
2.88405e-20 2.02778e-20 -2.39956e-02
3.12010e-20 1.55440e-20 -1.79634e-02
3.08593e-20 1.08164e-20 -1.17593e-02
2.66665e-20 6.44865e-21 -6.03511e-03
1.70489e-20 2.79407e-21 -1.69964e-03
0.00000e+00 0.00000e+00 0.00000e+00
0.00000e+00 0.00000e+00 0.00000e+00
-1.41822e-20 3.22891e-21 -1.40042e-03
-2.20921e-20 7.52052e-21 -4.96252e-03
-2.55098e-20 1.26734e-20 -9.64849e-03
-2.57258e-20 1.82145e-20 -1.47101e-02
-2.37496e-20 2.37496e-20 -1.96156e-02
-2.02778e-20 2.88405e-20 -2.39956e-02
-1.58580e-20 3.31751e-20 -2.76012e-02
-1.08436e-20 3.64563e-20 -3.02714e-02
-5.49773e-21 3.85083e-20 -3.19081e-02
1.55872e-33 3.92003e-20 -3.24591e-02
5.49773e-21 3.85083e-20 -3.19081e-02
1.08436e-20 3.64563e-20 -3.02714e-02
1.58580e-20 3.31751e-20 -2.76012e-02
2.02778e-20 2.88405e-20 -2.39956e-02
2.37496e-20 2.37496e-20 -1.96156e-02
2.57258e-20 1.82145e-20 -1.47101e-02
2.55098e-20 1.26734e-20 -9.64849e-03
2.20921e-20 7.52052e-21 -4.96252e-03
1.41822e-20 3.22891e-21 -1.40042e-03
0.00000e+00 0.00000e+00 0.00000e+00
0.00000e+00 0.00000e+00 0.00000e+00
-1.09252e-20 3.45570e-21 -1.05715e-03
-1.70148e-20 8.13881e-21 -3.74115e-03
-1.96145e-20 1.37530e-20 -7.26177e-03
-1.97752e-20 1.97752e-20 -1.10517e-02
-1.82145e-20 2.57258e-20 -1.47101e-02
-1.55440e-20 3.12010e-20 -1.79634e-02
-1.21462e-20 3.58150e-20 -2.06323e-02
-8.30721e-21 3.93073e-20 -2.26035e-02
-4.21072e-21 4.14711e-20 -2.38096e-02
1.44940e-33 4.22086e-20 -2.42153e-02
4.21072e-21 4.14711e-20 -2.38096e-02
8.30721e-21 3.93073e-20 -2.26035e-02
1.21462e-20 3.58150e-20 -2.06323e-02
1.55440e-20 3.12010e-20 -1.79634e-02
1.82145e-20 2.57258e-20 -1.47101e-02
1.97752e-20 1.97752e-20 -1.10517e-02
1.96145e-20 1.37530e-20 -7.26177e-03
1.70148e-20 8.13881e-21 -3.74115e-03
1.09252e-20 3.45570e-21 -1.05715e-03
0.00000e+00 0.00000e+00 0.00000e+00
0.00000e+00 0.00000e+00 0.00000e+00
-7.53324e-21 3.40390e-21 -6.93253e-04
-1.18008e-20 8.07261e-21 -2.45790e-03
-1.36759e-20 1.36759e-20 -4.77525e-03
-1.37530e-20 1.96145e-20 -7.26177e-03
-1.26734e-20 2.55098e-20 -9.64849e-03
-1.08164e-20 3.08593e-20 -1.17593e-02
-8.46427e-21 3.53528e-20 -1.34831e-02
-5.79335e-21 3.87158e-20 -1.47519e-02
-2.93965e-21 4.08015e-20 -1.55264e-02
1.70993e-33 4.15025e-20 -1.57866e-02
2.93965e-21 4.08015e-20 -1.55264e-02
5.79335e-21 3.87158e-20 -1.47519e-02
8.46427e-21 3.53528e-20 -1.34831e-02
1.08164e-20 3.08593e-20 -1.17593e-02
1.26734e-20 2.55098e-20 -9.64849e-03
1.37530e-20 1.96145e-20 -7.26177e-03
1.36759e-20 1.36759e-20 -4.77525e-03
1.18008e-20 8.07261e-21 -2.45790e-03
7.53324e-21 3.40390e-21 -6.93253e-04
0.00000e+00 0.00000e+00 0.00000e+00
0.00000e+00 0.00000e+00 0.00000e+00
-4.30693e-21 2.94950e-21 -3.48020e-04
-6.99031e-21 6.99031e-21 -1.25472e-03
-8.07261e-21 1.18008e-20 -2.45790e-03
-8.13881e-21 1.70148e-20 -3.74115e-03
-7.52052e-21 2.20921e-20 -4.96252e-03
-6.44865e-21 2.66665e-20 -6.03511e-03
-5.06443e-21 3.04492e-20 -6.90605e-03
-3.47865e-21 3.32680e-20 -7.54449e-03
-1.76823e-21 3.49975e-20 -7.93318e-03
9.52053e-34 3.55834e-20 -8.06360e-03
1.76823e-21 3.49975e-20 -7.93318e-03
3.47865e-21 3.32680e-20 -7.54449e-03
5.06443e-21 3.04492e-20 -6.90605e-03
6.44865e-21 2.66665e-20 -6.03511e-03
7.52052e-21 2.20921e-20 -4.96252e-03
8.13881e-21 1.70148e-20 -3.74115e-03
8.07261e-21 1.18008e-20 -2.45790e-03
6.99031e-21 6.99031e-21 -1.25472e-03
4.30693e-21 2.94950e-21 -3.48020e-04
0.00000e+00 0.00000e+00 0.00000e+00
0.00000e+00 0.00000e+00 0.00000e+00
-1.86370e-21 1.86370e-21 -9.22329e-05
-2.94950e-21 4.30693e-21 -3.48020e-04
-3.40390e-21 7.53324e-21 -6.93253e-04
-3.45570e-21 1.09252e-20 -1.05715e-03
-3.22891e-21 1.41822e-20 -1.40042e-03
-2.79407e-21 1.70489e-20 -1.69964e-03
-2.21365e-21 1.93950e-20 -1.94122e-03
-1.52927e-21 2.11191e-20 -2.11762e-03
-7.80534e-22 2.21747e-20 -2.22473e-03
5.19387e-34 2.25277e-20 -2.26063e-03
7.80534e-22 2.21747e-20 -2.22473e-03
1.52927e-21 2.11191e-20 -2.11762e-03
2.21365e-21 1.93950e-20 -1.94122e-03
2.79407e-21 1.70489e-20 -1.69964e-03
3.22891e-21 1.41822e-20 -1.40042e-03
3.45570e-21 1.09252e-20 -1.05715e-03
3.40390e-21 7.53324e-21 -6.93253e-04
2.94950e-21 4.30693e-21 -3.48020e-04
1.86370e-21 1.86370e-21 -9.22329e-05
0.00000e+00 0.00000e+00 0.00000e+00
0.00000e+00 0.00000e+00 0.00000e+00
0.00000e+00 0.00000e+00 0.00000e+00
0.00000e+00 0.00000e+00 0.00000e+00
0.00000e+00 0.00000e+00 0.00000e+00
0.00000e+00 0.00000e+00 0.00000e+00
0.00000e+00 0.00000e+00 0.00000e+00
0.00000e+00 0.00000e+00 0.00000e+00
0.00000e+00 0.00000e+00 0.00000e+00
0.00000e+00 0.00000e+00 0.00000e+00
0.00000e+00 0.00000e+00 0.00000e+00
0.00000e+00 0.00000e+00 0.00000e+00
0.00000e+00 0.00000e+00 0.00000e+00
0.00000e+00 0.00000e+00 0.00000e+00
0.00000e+00 0.00000e+00 0.00000e+00
0.00000e+00 0.00000e+00 0.00000e+00
0.00000e+00 0.00000e+00 0.00000e+00
0.00000e+00 0.00000e+00 0.00000e+00
0.00000e+00 0.00000e+00 0.00000e+00
0.00000e+00 0.00000e+00 0.00000e+00
0.00000e+00 0.00000e+00 0.00000e+00
0.00000e+00 0.00000e+00 0.00000e+00
</DataArray>
<DataArray Name="angDisp_FEM" type="Float32" NumberOfComponents="3" format="ascii">
0.00000e+00 0.00000e+00 0.00000e+00
0.00000e+00 0.00000e+00 0.00000e+00
0.00000e+00 0.00000e+00 0.00000e+00
0.00000e+00 0.00000e+00 0.00000e+00
0.00000e+00 0.00000e+00 0.00000e+00
0.00000e+00 0.00000e+00 0.00000e+00
0.00000e+00 0.00000e+00 0.00000e+00
0.00000e+00 0.00000e+00 0.00000e+00
0.00000e+00 0.00000e+00 0.00000e+00
0.00000e+00 0.00000e+00 0.00000e+00
0.00000e+00 0.00000e+00 0.00000e+00
0.00000e+00 0.00000e+00 0.00000e+00
0.00000e+00 0.00000e+00 0.00000e+00
0.00000e+00 0.00000e+00 0.00000e+00
0.00000e+00 0.00000e+00 0.00000e+00
0.00000e+00 0.00000e+00 0.00000e+00
0.00000e+00 0.00000e+00 0.00000e+00
0.00000e+00 0.00000e+00 0.00000e+00
0.00000e+00 0.00000e+00 0.00000e+00
0.00000e+00 0.00000e+00 0.00000e+00
0.00000e+00 0.00000e+00 0.00000e+00
0.00000e+00 0.00000e+00 0.00000e+00
3.83175e-03 -3.83175e-03 1.84976e-34
1.38282e-02 -6.65827e-03 -6.60383e-21
2.74347e-02 -7.55520e-03 -7.27190e-21
4.17822e-02 -7.44113e-03 -7.44930e-21
5.53591e-02 -6.71707e-03 -6.98406e-21
6.71976e-02 -5.62940e-03 -6.17922e-21
7.67693e-02 -4.34225e-03 -4.97129e-21
8.37595e-02 -2.94026e-03 -3.49495e-21
8.80069e-02 -1.48234e-03 -1.79773e-21
8.94300e-02 -4.94134e-16 4.68017e-34
8.80069e-02 1.48234e-03 1.79773e-21
8.37595e-02 2.94026e-03 3.49495e-21
7.67693e-02 4.34225e-03 4.97129e-21
6.71976e-02 5.62940e-03 6.17922e-21
5.53591e-02 6.71707e-03 6.98406e-21
4.17822e-02 7.44113e-03 7.44930e-21
2.74347e-02 7.55520e-03 7.27190e-21
1.38282e-02 6.65827e-03 6.60383e-21
3.83175e-03 3.83175e-03 -7.18453e-34
0.00000e+00 0.00000e+00 0.00000e+00
0.00000e+00 0.00000e+00 0.00000e+00
6.65827e-03 -1.38282e-02 6.60383e-21
2.23161e-02 -2.23161e-02 1.77610e-33
4.29848e-02 -2.57095e-02 -1.23772e-21
6.51814e-02 -2.55676e-02 -2.97661e-23
8.66247e-02 -2.32695e-02 1.03601e-21
1.05591e-01 -1.96376e-02 1.67409e-21
1.21118e-01 -1.52144e-02 1.75428e-21
1.32544e-01 -1.03386e-02 1.42126e-21
1.39528e-01 -5.22092e-03 7.81261e-22
1.41872e-01 5.13385e-15 -6.65099e-33
1.39528e-01 5.22092e-03 -7.81261e-22
1.32544e-01 1.03386e-02 -1.42126e-21
1.21118e-01 1.52144e-02 -1.75428e-21
1.05591e-01 1.96376e-02 -1.67409e-21
8.66247e-02 2.32695e-02 -1.03601e-21
6.51814e-02 2.55676e-02 2.97661e-23
4.29848e-02 2.57095e-02 1.23772e-21
2.23161e-02 2.23161e-02 -9.58122e-34
6.65827e-03 1.38282e-02 -6.60383e-21
0.00000e+00 0.00000e+00 0.00000e+00
0.00000e+00 0.00000e+00 0.00000e+00
7.55520e-03 -2.74347e-02 7.27190e-21
2.57095e-02 -4.29848e-02 1.23772e-21
4.96300e-02 -4.96300e-02 1.98348e-33
7.53380e-02 -4.98114e-02 9.87273e-22
1.00435e-01 -4.56786e-02 2.75422e-21
1.22875e-01 -3.87957e-02 3.73796e-21
1.41398e-01 -3.02018e-02 3.87407e-21
1.55125e-01 -2.05905e-02 3.10099e-21
1.63548e-01 -1.04187e-02 1.72103e-21
1.66383e-01 9.57878e-16 -1.38792e-33
1.63548e-01 1.04187e-02 -1.72103e-21
1.55125e-01 2.05905e-02 -3.10099e-21
1.41398e-01 3.02018e-02 -3.87407e-21
1.22875e-01 3.87957e-02 -3.73796e-21
1.00435e-01 4.56786e-02 -2.75422e-21
7.53380e-02 4.98114e-02 -9.87273e-22
4.96300e-02 4.96300e-02 9.60254e-34
2.57095e-02 4.29848e-02 -1.23772e-21
7.55520e-03 2.74347e-02 -7.27190e-21
0.00000e+00 0.00000e+00 0.00000e+00
0.00000e+00 0.00000e+00 0.00000e+00
7.44113e-03 -4.17822e-02 7.44930e-21
2.55676e-02 -6.51814e-02 2.97661e-23
4.98114e-02 -7.53380e-02 -9.87273e-22
7.60300e-02 -7.60300e-02 2.35926e-33
1.01746e-01 -7.01433e-02 1.74785e-21
1.24899e-01 -5.98779e-02 3.13868e-21
1.44128e-01 -4.68023e-02 3.56247e-21
1.58445e-01 -3.19996e-02 3.02921e-21
1.67260e-01 -1.62190e-02 1.71642e-21
1.70231e-01 1.44157e-14 -4.75491e-33
1.67260e-01 1.62190e-02 -1.71642e-21
1.58445e-01 3.19996e-02 -3.02921e-21
1.44128e-01 4.68023e-02 -3.56247e-21
1.24899e-01 5.98779e-02 -3.13868e-21
1.01746e-01 7.01433e-02 -1.74785e-21
7.60300e-02 7.60300e-02 4.20079e-33
4.98114e-02 7.53380e-02 9.87273e-22
2.55676e-02 6.51814e-02 -2.97661e-23
7.44113e-03 4.17822e-02 -7.44930e-21
0.00000e+00 0.00000e+00 0.00000e+00
0.00000e+00 0.00000e+00 0.00000e+00
6.71707e-03 -5.53591e-02 6.98406e-21
2.32695e-02 -8.66247e-02 -1.03601e-21
4.56786e-02 -1.00435e-01 -2.75422e-21
7.01433e-02 -1.01746e-01 -1.74785e-21
9.42682e-02 -9.42682e-02 1.64607e-33
1.16086e-01 -8.07836e-02 1.49189e-21
1.34282e-01 -6.33389e-02 2.27519e-21
1.47878e-01 -4.34039e-02 2.13198e-21
1.56269e-01 -2.20293e-02 1.27382e-21
1.59101e-01 1.51188e-15 -2.29795e-33
1.56269e-01 2.20293e-02 -1.27382e-21
1.47878e-01 4.34039e-02 -2.13198e-21
1.34282e-01 6.33389e-02 -2.27519e-21
1.16086e-01 8.07836e-02 -1.49189e-21
9.42682e-02 9.42682e-02 4.84206e-33
7.01433e-02 1.01746e-01 1.74785e-21
4.56786e-02 1.00435e-01 2.75422e-21
2.32695e-02 8.66247e-02 1.03601e-21
6.71707e-03 5.53591e-02 -6.98406e-21
0.00000e+00 0.00000e+00 0.00000e+00
0.00000e+00 0.00000e+00 0.00000e+00
5.62940e-03 -6.71976e-02 6.17922e-21
1.96376e-02 -1.05591e-01 -1.67409e-21
3.87957e-02 -1.22875e-01 -3.73796e-21
5.98779e-02 -1.24899e-01 -3.13868e-21
8.07836e-02 -1.16086e-01 -1.49189e-21
9.97654e-02 -9.97654e-02 1.70478e-33
1.15643e-01 -7.84054e-02 9.35019e-22
1.27536e-01 -5.38208e-02 1.15373e-21
1.34888e-01 -2.73450e-02 7.48944e-22
1.37372e-01 1.06377e-14 -6.56858e-33
1.34888e-01 2.73450e-02 -7.48944e-22
1.27536e-01 5.38208e-02 -1.15373e-21
1.15643e-01 7.84054e-02 -9.35019e-22
9.97654e-02 9.97654e-02 2.54584e-33
8.07836e-02 1.16086e-01 1.49189e-21
5.98779e-02 1.24899e-01 3.13868e-21
3.87957e-02 1.22875e-01 3.73796e-21
1.96376e-02 1.05591e-01 1.67409e-21
5.62940e-03 6.71976e-02 -6.17922e-21
0.00000e+00 0.00000e+00 0.00000e+00
0.00000e+00 0.00000e+00 0.00000e+00
4.34225e-03 -7.67693e-02 4.97129e-21
1.52144e-02 -1.21118e-01 -1.75428e-21
3.02018e-02 -1.41398e-01 -3.87407e-21
4.68023e-02 -1.44128e-01 -3.56247e-21
6.33389e-02 -1.34282e-01 -2.27519e-21
7.84054e-02 -1.15643e-01 -9.35019e-22
9.10379e-02 -9.10379e-02 8.48049e-33
1.00517e-01 -6.25705e-02 3.96645e-22
1.06383e-01 -3.18147e-02 3.33276e-22
1.08366e-01 -2.83367e-14 -1.05925e-32
1.06383e-01 3.18147e-02 -3.33276e-22
1.00517e-01 6.25705e-02 -3.96645e-22
9.10379e-02 9.10379e-02 -5.23329e-33
7.84054e-02 1.15643e-01 9.35019e-22
6.33389e-02 1.34282e-01 2.27519e-21
4.68023e-02 1.44128e-01 3.56247e-21
3.02018e-02 1.41398e-01 3.87407e-21
1.52144e-02 1.21118e-01 1.75428e-21
4.34225e-03 7.67693e-02 -4.97129e-21
0.00000e+00 0.00000e+00 0.00000e+00
0.00000e+00 0.00000e+00 0.00000e+00
2.94026e-03 -8.37595e-02 3.49495e-21
1.03386e-02 -1.32544e-01 -1.42126e-21
2.05905e-02 -1.55125e-01 -3.10099e-21
3.19996e-02 -1.58445e-01 -3.02921e-21
4.34039e-02 -1.47878e-01 -2.13198e-21
5.38208e-02 -1.27536e-01 -1.15373e-21
6.25705e-02 -1.00517e-01 -3.96645e-22
6.91440e-02 -6.91440e-02 2.03334e-32
7.32155e-02 -3.51754e-02 8.88330e-23
7.45925e-02 -2.51345e-14 2.54193e-32
7.32155e-02 3.51754e-02 -8.88330e-23
6.91440e-02 6.91440e-02 4.30907e-33
6.25705e-02 1.00517e-01 3.96645e-22
5.38208e-02 1.27536e-01 1.15373e-21
4.34039e-02 1.47878e-01 2.13198e-21
3.19996e-02 1.58445e-01 3.02921e-21
2.05905e-02 1.55125e-01 3.10099e-21
1.03386e-02 1.32544e-01 1.42126e-21
2.94026e-03 8.37595e-02 -3.49495e-21
0.00000e+00 0.00000e+00 0.00000e+00
0.00000e+00 0.00000e+00 0.00000e+00
1.48234e-03 -8.80069e-02 1.79773e-21
5.22092e-03 -1.39528e-01 -7.81261e-22
1.04187e-02 -1.63548e-01 -1.72103e-21
1.62190e-02 -1.67260e-01 -1.71642e-21
2.20293e-02 -1.56269e-01 -1.27382e-21
2.73450e-02 -1.34888e-01 -7.48944e-22
3.18147e-02 -1.06383e-01 -3.33276e-22
3.51754e-02 -7.32155e-02 -8.88330e-23
3.72579e-02 -3.72579e-02 6.41650e-33
3.79623e-02 -3.24895e-14 -5.12268e-33
3.72579e-02 3.72579e-02 1.60314e-32
3.51754e-02 7.32155e-02 8.88330e-23
3.18147e-02 1.06383e-01 3.33276e-22
2.73450e-02 1.34888e-01 7.48944e-22
2.20293e-02 1.56269e-01 1.27382e-21
1.62190e-02 1.67260e-01 1.71642e-21
1.04187e-02 1.63548e-01 1.72103e-21
5.22092e-03 1.39528e-01 7.81261e-22
1.48234e-03 8.80069e-02 -1.79773e-21
0.00000e+00 0.00000e+00 0.00000e+00
0.00000e+00 0.00000e+00 0.00000e+00
2.16583e-15 -8.94300e-02 -3.13098e-34
6.03240e-15 -1.41872e-01 4.98690e-33
1.61660e-14 -1.66383e-01 2.76765e-33
2.17793e-14 -1.70231e-01 -5.33519e-33
2.11591e-14 -1.59101e-01 -4.82266e-33
3.05623e-14 -1.37372e-01 1.14877e-32
3.58676e-14 -1.08366e-01 -7.17916e-33
2.08948e-14 -7.45925e-02 -8.64350e-33
7.31560e-15 -3.79623e-02 -4.91455e-33
-1.04712e-16 -3.38791e-14 -4.45631e-33
6.29550e-15 3.79623e-02 -1.56039e-32
-5.53829e-15 7.45925e-02 -6.12585e-34
1.00049e-14 1.08366e-01 1.10601e-32
1.46822e-14 1.37372e-01 2.83564e-33
1.45060e-14 1.59101e-01 5.22831e-33
1.91163e-14 1.70231e-01 4.30700e-33
1.01096e-14 1.66383e-01 -8.58793e-34
7.30371e-15 1.41872e-01 2.05839e-33
1.76410e-15 8.94300e-02 3.66071e-34
0.00000e+00 0.00000e+00 0.00000e+00
0.00000e+00 0.00000e+00 0.00000e+00
-1.48234e-03 -8.80069e-02 -1.79773e-21
-5.22092e-03 -1.39528e-01 7.81261e-22
-1.04187e-02 -1.63548e-01 1.72103e-21
-1.62190e-02 -1.67260e-01 1.71642e-21
-2.20293e-02 -1.56269e-01 1.27382e-21
-2.73450e-02 -1.34888e-01 7.48944e-22
-3.18147e-02 -1.06383e-01 3.33276e-22
-3.51754e-02 -7.32155e-02 8.88330e-23
-3.72579e-02 -3.72579e-02 1.21815e-32
-3.79623e-02 -3.08015e-14 -1.72210e-32
-3.72579e-02 3.72579e-02 -3.19584e-33
-3.51754e-02 7.32155e-02 -8.88330e-23
-3.18147e-02 1.06383e-01 -3.33276e-22
-2.73450e-02 1.34888e-01 -7.48944e-22
-2.20293e-02 1.56269e-01 -1.27382e-21
-1.62190e-02 1.67260e-01 -1.71642e-21
-1.04187e-02 1.63548e-01 -1.72103e-21
-5.22092e-03 1.39528e-01 -7.81261e-22
-1.48234e-03 8.80069e-02 1.79773e-21
0.00000e+00 0.00000e+00 0.00000e+00
0.00000e+00 0.00000e+00 0.00000e+00
-2.94026e-03 -8.37595e-02 -3.49495e-21
-1.03386e-02 -1.32544e-01 1.42126e-21
-2.05905e-02 -1.55125e-01 3.10099e-21
-3.19996e-02 -1.58445e-01 3.02921e-21
-4.34039e-02 -1.47878e-01 2.13198e-21
-5.38208e-02 -1.27536e-01 1.15373e-21
-6.25705e-02 -1.00517e-01 3.96645e-22
-6.91440e-02 -6.91440e-02 3.86224e-33
-7.32155e-02 -3.51754e-02 -8.88330e-23
-7.45925e-02 -2.45461e-14 8.58763e-33
-7.32155e-02 3.51754e-02 8.88330e-23
-6.91440e-02 6.91440e-02 -7.84816e-33
-6.25705e-02 1.00517e-01 -3.96645e-22
-5.38208e-02 1.27536e-01 -1.15373e-21
-4.34039e-02 1.47878e-01 -2.13198e-21
-3.19996e-02 1.58445e-01 -3.02921e-21
-2.05905e-02 1.55125e-01 -3.10099e-21
-1.03386e-02 1.32544e-01 -1.42126e-21
-2.94026e-03 8.37595e-02 3.49495e-21
0.00000e+00 0.00000e+00 0.00000e+00
0.00000e+00 0.00000e+00 0.00000e+00
-4.34225e-03 -7.67693e-02 -4.97129e-21
-1.52144e-02 -1.21118e-01 1.75428e-21
-3.02018e-02 -1.41398e-01 3.87407e-21
-4.68023e-02 -1.44128e-01 3.56247e-21
-6.33389e-02 -1.34282e-01 2.27519e-21
-7.84054e-02 -1.15643e-01 9.35019e-22
-9.10379e-02 -9.10379e-02 3.86916e-33
-1.00517e-01 -6.25705e-02 -3.96645e-22
-1.06383e-01 -3.18147e-02 -3.33276e-22
-1.08366e-01 1.91794e-16 7.17392e-33
-1.06383e-01 3.18147e-02 3.33276e-22
-1.00517e-01 6.25705e-02 3.96645e-22
-9.10379e-02 9.10379e-02 -1.04403e-32
-7.84054e-02 1.15643e-01 -9.35019e-22
-6.33389e-02 1.34282e-01 -2.27519e-21
-4.68023e-02 1.44128e-01 -3.56247e-21
-3.02018e-02 1.41398e-01 -3.87407e-21
-1.52144e-02 1.21118e-01 -1.75428e-21
-4.34225e-03 7.67693e-02 4.97129e-21
0.00000e+00 0.00000e+00 0.00000e+00
0.00000e+00 0.00000e+00 0.00000e+00
-5.62940e-03 -6.71976e-02 -6.17922e-21
-1.96376e-02 -1.05591e-01 1.67409e-21
-3.87957e-02 -1.22875e-01 3.73796e-21
-5.98779e-02 -1.24899e-01 3.13868e-21
-8.07836e-02 -1.16086e-01 1.49189e-21
-9.97654e-02 -9.97654e-02 -8.04422e-33
-1.15643e-01 -7.84054e-02 -9.35019e-22
-1.27536e-01 -5.38208e-02 -1.15373e-21
-1.34888e-01 -2.73450e-02 -7.48944e-22
-1.37372e-01 2.46529e-15 3.17861e-33
-1.34888e-01 2.73450e-02 7.48944e-22
-1.27536e-01 5.38208e-02 1.15373e-21
-1.15643e-01 7.84054e-02 9.35019e-22
-9.97654e-02 9.97654e-02 -8.86981e-33
-8.07836e-02 1.16086e-01 -1.49189e-21
-5.98779e-02 1.24899e-01 -3.13868e-21
-3.87957e-02 1.22875e-01 -3.73796e-21
-1.96376e-02 1.05591e-01 -1.67409e-21
-5.62940e-03 6.71976e-02 6.17922e-21
0.00000e+00 0.00000e+00 0.00000e+00
0.00000e+00 0.00000e+00 0.00000e+00
-6.71707e-03 -5.53591e-02 -6.98406e-21
-2.32695e-02 -8.66247e-02 1.03601e-21
-4.56786e-02 -1.00435e-01 2.75422e-21
-7.01433e-02 -1.01746e-01 1.74785e-21
-9.42682e-02 -9.42682e-02 -2.79800e-33
-1.16086e-01 -8.07836e-02 -1.49189e-21
-1.34282e-01 -6.33389e-02 -2.27519e-21
-1.47878e-01 -4.34039e-02 -2.13198e-21
-1.56269e-01 -2.20293e-02 -1.27382e-21
-1.59101e-01 9.14745e-15 2.92130e-33
-1.56269e-01 2.20293e-02 1.27382e-21
-1.47878e-01 4.34039e-02 2.13198e-21
-1.34282e-01 6.33389e-02 2.27519e-21
-1.16086e-01 8.07836e-02 1.49189e-21
-9.42682e-02 9.42682e-02 -4.10464e-33
-7.01433e-02 1.01746e-01 -1.74785e-21
-4.56786e-02 1.00435e-01 -2.75422e-21
-2.32695e-02 8.66247e-02 -1.03601e-21
-6.71707e-03 5.53591e-02 6.98406e-21
0.00000e+00 0.00000e+00 0.00000e+00
0.00000e+00 0.00000e+00 0.00000e+00
-7.44113e-03 -4.17822e-02 -7.44930e-21
-2.55676e-02 -6.51814e-02 -2.97661e-23
-4.98114e-02 -7.53380e-02 9.87273e-22
-7.60300e-02 -7.60300e-02 -4.82473e-33
-1.01746e-01 -7.01433e-02 -1.74785e-21
-1.24899e-01 -5.98779e-02 -3.13868e-21
-1.44128e-01 -4.68023e-02 -3.56247e-21
-1.58445e-01 -3.19996e-02 -3.02921e-21
-1.67260e-01 -1.62190e-02 -1.71642e-21
-1.70231e-01 9.63685e-15 -5.14230e-34
-1.67260e-01 1.62190e-02 1.71642e-21
-1.58445e-01 3.19996e-02 3.02921e-21
-1.44128e-01 4.68023e-02 3.56247e-21
-1.24899e-01 5.98779e-02 3.13868e-21
-1.01746e-01 7.01433e-02 1.74785e-21
-7.60300e-02 7.60300e-02 -6.25927e-34
-4.98114e-02 7.53380e-02 -9.87273e-22
-2.55676e-02 6.51814e-02 2.97661e-23
-7.44113e-03 4.17822e-02 7.44930e-21
0.00000e+00 0.00000e+00 0.00000e+00
0.00000e+00 0.00000e+00 0.00000e+00
-7.55520e-03 -2.74347e-02 -7.27190e-21
-2.57095e-02 -4.29848e-02 -1.23772e-21
-4.96300e-02 -4.96300e-02 -4.53496e-33
-7.53380e-02 -4.98114e-02 -9.87273e-22
-1.00435e-01 -4.56786e-02 -2.75422e-21
-1.22875e-01 -3.87957e-02 -3.73796e-21
-1.41398e-01 -3.02018e-02 -3.87407e-21
-1.55125e-01 -2.05905e-02 -3.10099e-21
-1.63548e-01 -1.04187e-02 -1.72103e-21
-1.66383e-01 8.96576e-15 8.93977e-33
-1.63548e-01 1.04187e-02 1.72103e-21
-1.55125e-01 2.05905e-02 3.10099e-21
-1.41398e-01 3.02018e-02 3.87407e-21
-1.22875e-01 3.87957e-02 3.73796e-21
-1.00435e-01 4.56786e-02 2.75422e-21
-7.53380e-02 4.98114e-02 9.87273e-22
-4.96300e-02 4.96300e-02 2.63022e-34
-2.57095e-02 4.29848e-02 1.23772e-21
-7.55520e-03 2.74347e-02 7.27190e-21
0.00000e+00 0.00000e+00 0.00000e+00
0.00000e+00 0.00000e+00 0.00000e+00
-6.65827e-03 -1.38282e-02 -6.60383e-21
-2.23161e-02 -2.23161e-02 -2.34348e-33
-4.29848e-02 -2.57095e-02 1.23772e-21
-6.51814e-02 -2.55676e-02 2.97661e-23
-8.66247e-02 -2.32695e-02 -1.03601e-21
-1.05591e-01 -1.96376e-02 -1.67409e-21
-1.21118e-01 -1.52144e-02 -1.75428e-21
-1.32544e-01 -1.03386e-02 -1.42126e-21
-1.39528e-01 -5.22092e-03 -7.81261e-22
-1.41872e-01 4.24187e-15 3.70085e-33
-1.39528e-01 5.22092e-03 7.81261e-22
-1.32544e-01 1.03386e-02 1.42126e-21
-1.21118e-01 1.52144e-02 1.75428e-21
-1.05591e-01 1.96376e-02 1.67409e-21
-8.66247e-02 2.32695e-02 1.03601e-21
-6.51814e-02 2.55676e-02 -2.97661e-23
-4.29848e-02 2.57095e-02 -1.23772e-21
-2.23161e-02 2.23161e-02 -7.59840e-35
-6.65827e-03 1.38282e-02 6.60383e-21
0.00000e+00 0.00000e+00 0.00000e+00
0.00000e+00 0.00000e+00 0.00000e+00
-3.83175e-03 -3.83175e-03 -2.34723e-34
-1.38282e-02 -6.65827e-03 6.60383e-21
-2.74347e-02 -7.55520e-03 7.27190e-21
-4.17822e-02 -7.44113e-03 7.44930e-21
-5.53591e-02 -6.71707e-03 6.98406e-21
-6.71976e-02 -5.62940e-03 6.17922e-21
-7.67693e-02 -4.34225e-03 4.97129e-21
-8.37595e-02 -2.94026e-03 3.49495e-21
-8.80069e-02 -1.48234e-03 1.79773e-21
-8.94300e-02 1.52602e-15 3.10823e-33
-8.80069e-02 1.48234e-03 -1.79773e-21
-8.37595e-02 2.94026e-03 -3.49495e-21
-7.67693e-02 4.34225e-03 -4.97129e-21
-6.71976e-02 5.62940e-03 -6.17922e-21
-5.53591e-02 6.71707e-03 -6.98406e-21
-4.17822e-02 7.44113e-03 -7.44930e-21
-2.74347e-02 7.55520e-03 -7.27190e-21
-1.38282e-02 6.65827e-03 -6.60383e-21
-3.83175e-03 3.83175e-03 1.03915e-34
0.00000e+00 0.00000e+00 0.00000e+00
0.00000e+00 0.00000e+00 0.00000e+00
0.00000e+00 0.00000e+00 0.00000e+00
0.00000e+00 0.00000e+00 0.00000e+00
0.00000e+00 0.00000e+00 0.00000e+00
0.00000e+00 0.00000e+00 0.00000e+00
0.00000e+00 0.00000e+00 0.00000e+00
0.00000e+00 0.00000e+00 0.00000e+00
0.00000e+00 0.00000e+00 0.00000e+00
0.00000e+00 0.00000e+00 0.00000e+00
0.00000e+00 0.00000e+00 0.00000e+00
0.00000e+00 0.00000e+00 0.00000e+00
0.00000e+00 0.00000e+00 0.00000e+00
0.00000e+00 0.00000e+00 0.00000e+00
0.00000e+00 0.00000e+00 0.00000e+00
0.00000e+00 0.00000e+00 0.00000e+00
0.00000e+00 0.00000e+00 0.00000e+00
0.00000e+00 0.00000e+00 0.00000e+00
0.00000e+00 0.00000e+00 0.00000e+00
0.00000e+00 0.00000e+00 0.00000e+00
0.00000e+00 0.00000e+00 0.00000e+00
0.00000e+00 0.00000e+00 0.00000e+00
</DataArray>
<DataArray Name="Disp_error" type="Float32" NumberOfComponents="3" format="ascii">
0.00000e+00 0.00000e+00 0.00000e+00
0.00000e+00 0.00000e+00 0.00000e+00
0.00000e+00 0.00000e+00 0.00000e+00
0.00000e+00 0.00000e+00 0.00000e+00
0.00000e+00 0.00000e+00 0.00000e+00
0.00000e+00 0.00000e+00 0.00000e+00
0.00000e+00 0.00000e+00 0.00000e+00
0.00000e+00 0.00000e+00 0.00000e+00
0.00000e+00 0.00000e+00 0.00000e+00
0.00000e+00 0.00000e+00 0.00000e+00
0.00000e+00 0.00000e+00 0.00000e+00
0.00000e+00 0.00000e+00 0.00000e+00
0.00000e+00 0.00000e+00 0.00000e+00
0.00000e+00 0.00000e+00 0.00000e+00
0.00000e+00 0.00000e+00 0.00000e+00
0.00000e+00 0.00000e+00 0.00000e+00
0.00000e+00 0.00000e+00 0.00000e+00
0.00000e+00 0.00000e+00 0.00000e+00
0.00000e+00 0.00000e+00 0.00000e+00
0.00000e+00 0.00000e+00 0.00000e+00
0.00000e+00 0.00000e+00 0.00000e+00
0.00000e+00 0.00000e+00 0.00000e+00
3.84901e-16 8.15897e-17 1.27147e-07
7.49473e-16 9.09861e-17 1.97906e-07
4.67610e-16 3.96423e-16 1.65659e-07
3.02655e-16 1.12463e-16 1.95694e-07
1.66222e-16 9.17148e-16 3.49944e-07
8.54498e-17 7.09504e-16 3.95463e-07
1.04743e-15 8.19925e-18 4.72413e-07
9.44039e-16 1.39292e-16 4.98025e-07
7.55194e-16 9.26867e-16 5.27827e-07
7.11340e-16 2.93965e-16 5.27827e-07
7.15268e-16 3.71320e-16 5.07105e-07
7.20829e-16 1.42947e-16 4.86150e-07
5.69450e-16 3.03909e-16 4.49945e-07
3.64547e-16 1.68884e-16 3.88827e-07
1.11081e-15 3.47916e-16 3.41446e-07
9.47935e-16 1.70726e-16 1.98139e-07
9.50965e-16 4.86957e-16 1.49710e-07
3.39338e-16 4.04169e-16 1.99972e-07
7.98332e-16 1.41793e-16 1.30771e-07
0.00000e+00 0.00000e+00 0.00000e+00
0.00000e+00 0.00000e+00 0.00000e+00
7.52034e-16 6.39533e-16 1.96917e-07
4.51816e-16 1.05024e-15 2.33646e-07
4.02135e-16 7.52328e-16 3.84403e-07
1.18627e-15 7.16023e-16 8.49832e-07
3.96335e-16 2.49311e-16 1.20932e-06
3.75220e-16 6.76841e-16 1.49105e-06
2.98540e-16 5.43019e-16 1.72481e-06
9.64710e-16 1.23325e-16 1.84868e-06
8.20168e-16 5.62508e-16 1.96137e-06
5.14577e-16 4.91292e-16 1.97068e-06
7.94742e-16 1.01117e-16 1.94553e-06
6.61673e-16 1.12130e-16 1.81142e-06
9.98356e-16 7.31220e-18 1.70106e-06
1.07460e-15 1.07219e-16 1.48686e-06
1.42459e-15 7.58548e-16 1.21305e-06
3.23316e-16 8.78941e-17 8.12113e-07
5.79447e-16 8.27292e-17 3.47150e-07
4.75623e-16 2.21361e-16 2.45403e-07
9.10011e-16 9.18039e-17 1.87836e-07
0.00000e+00 0.00000e+00 0.00000e+00
0.00000e+00 0.00000e+00 0.00000e+00
6.18645e-16 1.41471e-16 1.63040e-07
4.69635e-16 6.18238e-16 3.81144e-07
2.26229e-16 7.31619e-16 8.90344e-07
4.21614e-16 1.07714e-15 1.64891e-06
2.93782e-16 8.12610e-17 2.28174e-06
2.94641e-16 6.07781e-16 2.77907e-06
1.54208e-15 2.79857e-16 3.14787e-06
1.32062e-16 3.73127e-16 3.43565e-06
4.32673e-16 1.19345e-16 3.63495e-06
5.83224e-16 5.97274e-16 3.74578e-06
4.96949e-16 8.80180e-17 3.60422e-06
1.93946e-15 2.93336e-16 3.38070e-06
6.87955e-16 3.62968e-16 3.10317e-06
7.17270e-17 6.00421e-16 2.77068e-06
8.13985e-16 2.80371e-16 2.21934e-06
5.46203e-16 9.85499e-17 1.58604e-06
5.15665e-16 4.53406e-17 8.22358e-07
5.33170e-16 3.54573e-16 3.46452e-07
1.09442e-15 4.59653e-16 1.41212e-07
0.00000e+00 0.00000e+00 0.00000e+00
0.00000e+00 0.00000e+00 0.00000e+00
5.55453e-17 6.12557e-16 1.88476e-07
4.86376e-16 1.02981e-16 8.67527e-07
1.97954e-16 1.20794e-15 1.69687e-06
7.05904e-16 1.17628e-15 2.58069e-06
1.42085e-16 1.84777e-16 3.48967e-06
1.86921e-16 9.72091e-16 4.29899e-06
5.40801e-16 1.84736e-16 4.87827e-06
4.35369e-16 8.59667e-17 5.29923e-06
1.01807e-16 4.69478e-16 5.59911e-06
8.13264e-16 5.12857e-16 5.61029e-06
1.19510e-15 4.59916e-16 5.53951e-06
7.32274e-16 8.01156e-16 5.24707e-06
7.85933e-16 5.57744e-16 4.79817e-06
1.94784e-16 7.23389e-16 4.20585e-06
2.50180e-16 5.80630e-16 3.39095e-06
9.70154e-16 9.14780e-16 2.40374e-06
6.24371e-16 5.49444e-17 1.58092e-06
1.02458e-15 2.64930e-16 8.10483e-07
5.36153e-16 5.29458e-16 1.87545e-07
0.00000e+00 0.00000e+00 0.00000e+00
0.00000e+00 0.00000e+00 0.00000e+00
3.18273e-16 4.43051e-16 3.65777e-07
6.58257e-16 3.49229e-16 1.27498e-06
3.59529e-16 8.66557e-16 2.39443e-06
5.46815e-16 2.03898e-16 3.62191e-06
2.28402e-16 2.18960e-16 4.77582e-06
7.78479e-16 1.08362e-16 5.70342e-06
4.19148e-16 6.69652e-17 6.44848e-06
2.20895e-16 7.29576e-17 7.02217e-06
2.17088e-16 3.45801e-16 7.33882e-06
4.32613e-17 6.99087e-16 7.53254e-06
3.35508e-16 1.50976e-16 7.30157e-06
6.53271e-16 2.40763e-16 6.94580e-06
5.91451e-16 5.14468e-16 6.32368e-06
2.13166e-16 4.01256e-16 5.56745e-06
1.04036e-15 5.46398e-16 4.55230e-06
8.30271e-17 5.26553e-16 3.41423e-06
3.21011e-16 5.71585e-16 2.23704e-06
1.36395e-15 2.64261e-16 1.21910e-06
1.14389e-16 1.43917e-16 3.56464e-07
0.00000e+00 0.00000e+00 0.00000e+00
0.00000e+00 0.00000e+00 0.00000e+00
3.52143e-16 2.27061e-17 4.17000e-07
3.68046e-16 4.19159e-16 1.60607e-06
3.02699e-16 3.17832e-16 3.00072e-06
4.76756e-16 3.36513e-16 4.53368e-06
4.87084e-16 4.41897e-16 5.87292e-06
2.38345e-16 2.61302e-16 7.04639e-06
8.23882e-16 4.85644e-16 7.98330e-06
6.09868e-17 8.70289e-16 8.57562e-06
7.95513e-16 9.02781e-16 8.97050e-06
3.67639e-17 2.80572e-16 9.08226e-06
6.47541e-18 8.11180e-17 8.96305e-06
2.67654e-16 2.40960e-16 8.46758e-06
7.56024e-16 6.58495e-16 7.82683e-06
1.13406e-15 5.65569e-16 6.79307e-06
4.90068e-16 3.63284e-16 5.65127e-06
2.78576e-16 4.20009e-16 4.29526e-06
7.60951e-16 5.06786e-16 2.84798e-06
5.87290e-16 5.94037e-16 1.56322e-06
2.55681e-16 7.51989e-16 4.25149e-07
0.00000e+00 0.00000e+00 0.00000e+00
0.00000e+00 0.00000e+00 0.00000e+00
1.01469e-15 1.08306e-16 5.06174e-07
1.71091e-16 1.74041e-16 1.86870e-06
1.16614e-15 9.89136e-16 3.41143e-06
2.92450e-16 2.91913e-16 5.20237e-06
4.51794e-16 5.23867e-16 6.68503e-06
1.30093e-16 4.68799e-16 8.10623e-06
5.72227e-17 7.22154e-16 9.08226e-06
3.72655e-16 8.46993e-16 9.84222e-06
2.00770e-16 3.89511e-16 1.02818e-05
1.36785e-15 4.83631e-16 1.04345e-05
7.21031e-16 4.22163e-16 1.02855e-05
4.44247e-16 5.66948e-16 9.79006e-06
7.37455e-16 2.74690e-16 8.94070e-06
1.03791e-15 4.97149e-17 7.92742e-06
1.25702e-15 2.57607e-17 6.47642e-06
3.89102e-17 1.19811e-15 5.00679e-06
6.80856e-16 2.00045e-16 3.33879e-06
1.74490e-16 5.77999e-16 1.87568e-06
1.63180e-16 5.43946e-17 5.11645e-07
0.00000e+00 0.00000e+00 0.00000e+00
0.00000e+00 0.00000e+00 0.00000e+00
2.92135e-16 5.26278e-16 5.51110e-07
3.05054e-16 7.37502e-16 2.01911e-06
6.26957e-17 7.22379e-16 3.72157e-06
1.49164e-16 3.68441e-16 5.65127e-06
4.46680e-16 4.63778e-16 7.33882e-06
2.79466e-16 4.54961e-16 8.76561e-06
2.75960e-16 4.55627e-16 9.98005e-06
3.91327e-16 1.26876e-17 1.07661e-05
5.50601e-16 5.39592e-16 1.12876e-05
9.63738e-16 8.64761e-16 1.13361e-05
8.26541e-16 5.39871e-16 1.12541e-05
3.93558e-16 7.09094e-16 1.06096e-05
3.81300e-16 3.10121e-16 9.83477e-06
8.14227e-16 4.37009e-16 8.60915e-06
1.04338e-15 9.88452e-17 7.18236e-06
5.49007e-16 1.18578e-15 5.55813e-06
9.81935e-17 8.85674e-16 3.70201e-06
7.56077e-16 2.27554e-16 2.03820e-06
5.48957e-16 9.06457e-16 5.57397e-07
0.00000e+00 0.00000e+00 0.00000e+00
0.00000e+00 0.00000e+00 0.00000e+00
4.50272e-16 2.48955e-16 5.73695e-07
2.13122e-16 2.70170e-16 2.11969e-06
2.31963e-16 6.88415e-17 3.91994e-06
1.62226e-17 9.70166e-16 5.91204e-06
1.20590e-15 5.13527e-16 7.61822e-06
3.52993e-16 8.14125e-16 9.19774e-06
7.28548e-16 9.09875e-16 1.04532e-05
9.13348e-17 1.31339e-15 1.13994e-05
3.64730e-16 2.69173e-16 1.17086e-05
1.92342e-16 3.31662e-16 1.18688e-05
1.59878e-15 1.17811e-15 1.16304e-05
1.46739e-16 3.11431e-17 1.12876e-05
1.73355e-16 2.11180e-16 1.03712e-05
1.39323e-15 2.85588e-16 9.18284e-06
1.46899e-15 1.05113e-15 7.65175e-06
7.70854e-16 8.34154e-16 5.88782e-06
1.58290e-16 2.63304e-16 3.98327e-06
2.25930e-16 1.01241e-15 2.15042e-06
5.16179e-16 3.26822e-16 5.94184e-07
0.00000e+00 0.00000e+00 0.00000e+00
0.00000e+00 0.00000e+00 0.00000e+00
2.76303e-16 6.09919e-17 5.62519e-07
5.73657e-16 1.60325e-16 2.10572e-06
6.43190e-16 5.44068e-16 3.95067e-06
7.36029e-16 5.75554e-16 5.89155e-06
1.02592e-15 1.53858e-16 7.74488e-06
7.81941e-16 2.01467e-16 9.28715e-06
1.53955e-16 3.68669e-16 1.06059e-05
1.21449e-17 3.70455e-16 1.14702e-05
3.94137e-17 2.52651e-16 1.19470e-05
3.69962e-16 3.36746e-16 1.20290e-05
8.21870e-16 2.63470e-16 1.19247e-05
8.05315e-17 3.99707e-16 1.14292e-05
2.37947e-17 8.52815e-16 1.06543e-05
6.75703e-16 9.84717e-16 9.38028e-06
1.96207e-16 1.18219e-15 7.90507e-06
5.54283e-16 3.74497e-16 6.00331e-06
8.52154e-17 2.32206e-17 4.11272e-06
3.27855e-16 5.58778e-16 2.16998e-06
4.36074e-16 2.98774e-16 5.85802e-07
0.00000e+00 0.00000e+00 0.00000e+00
0.00000e+00 0.00000e+00 0.00000e+00
6.61707e-17 1.49305e-16 5.49015e-07
1.06907e-15 1.09005e-16 2.02097e-06
7.63121e-16 1.55969e-16 3.75416e-06
2.66589e-16 9.46618e-18 5.72950e-06
1.04859e-15 3.05651e-16 7.48783e-06
3.59686e-16 7.40097e-16 9.07481e-06
7.15306e-17 4.65494e-16 1.03265e-05
1.39627e-16 1.69374e-16 1.13435e-05
2.53954e-16 2.53595e-16 1.16713e-05
6.72083e-16 5.11850e-16 1.18986e-05
3.52971e-16 5.78077e-17 1.16900e-05
3.33135e-16 1.18778e-16 1.13845e-05
7.94706e-16 4.55299e-16 1.04643e-05
5.10562e-16 4.90317e-16 9.31323e-06
3.22049e-16 3.98601e-16 7.75978e-06
4.77450e-16 2.71143e-16 6.01076e-06
2.36937e-16 2.50292e-16 3.99258e-06
9.42306e-16 6.43747e-16 2.16067e-06
8.95469e-16 3.23706e-16 5.88363e-07
0.00000e+00 0.00000e+00 0.00000e+00
0.00000e+00 0.00000e+00 0.00000e+00
4.02844e-16 4.86492e-17 4.89410e-07
1.79195e-16 1.00687e-16 1.83936e-06
6.93839e-16 1.14267e-16 3.44682e-06
3.65325e-16 7.22120e-16 5.27501e-06
5.59394e-16 5.10998e-16 7.02031e-06
8.35363e-16 4.85168e-16 8.50856e-06
5.66384e-16 3.42387e-16 9.71556e-06
2.16477e-17 2.11312e-16 1.05761e-05
3.13164e-16 9.30206e-17 1.11945e-05
3.22452e-16 9.23753e-16 1.12876e-05
1.25075e-16 4.71575e-16 1.12243e-05
6.43274e-18 3.86194e-16 1.07102e-05
5.60063e-16 7.56531e-16 9.96888e-06
2.69650e-16 6.17653e-16 8.82894e-06
2.69411e-16 1.63899e-16 7.40215e-06
2.67701e-16 3.24768e-16 5.69969e-06
4.59936e-17 4.80746e-17 3.76627e-06
1.68145e-15 4.31831e-17 2.05077e-06
5.64401e-17 2.06984e-16 5.62984e-07
0.00000e+00 0.00000e+00 0.00000e+00
0.00000e+00 0.00000e+00 0.00000e+00
6.94400e-17 5.69344e-16 4.38653e-07
1.77267e-16 8.40374e-16 1.67545e-06
1.00736e-15 1.78517e-16 3.08547e-06
4.87699e-16 2.03599e-16 4.81494e-06
9.97155e-17 1.11203e-15 6.28829e-06
5.68784e-16 3.45070e-16 7.75978e-06
7.38177e-16 7.65754e-16 8.76561e-06
3.24000e-16 3.94335e-16 9.62242e-06
1.85290e-16 2.32624e-16 1.00993e-05
8.89073e-17 1.45574e-15 1.03116e-05
5.79352e-16 1.08889e-16 1.01849e-05
9.61931e-16 1.05834e-16 9.76026e-06
6.40672e-16 1.65630e-16 9.03383e-06
1.38275e-15 4.30352e-16 8.10996e-06
4.26585e-16 4.40830e-16 6.74091e-06
9.42866e-16 1.00254e-15 5.23962e-06
3.89698e-18 1.06776e-15 3.45148e-06
3.84306e-16 9.54938e-16 1.92318e-06
8.69773e-16 3.59531e-16 5.20493e-07
0.00000e+00 0.00000e+00 0.00000e+00
0.00000e+00 0.00000e+00 0.00000e+00
2.77145e-16 4.49530e-16 3.75789e-07
4.43393e-16 6.39971e-16 1.43610e-06
3.78958e-16 1.22799e-15 2.71946e-06
6.24070e-17 5.92317e-16 4.10900e-06
1.07125e-15 8.12837e-16 5.45196e-06
3.86158e-16 4.80270e-16 6.63102e-06
3.92108e-16 1.05436e-16 7.67037e-06
7.89613e-16 1.58033e-16 8.28877e-06
7.82302e-16 1.16641e-15 8.74326e-06
3.00176e-16 6.38492e-16 8.88854e-06
8.06171e-16 5.62552e-16 8.78423e-06
4.45808e-16 7.29002e-16 8.46013e-06
1.84373e-16 4.53297e-16 7.91997e-06
3.92002e-17 1.72082e-16 7.02403e-06
1.08390e-15 7.09516e-16 5.89155e-06
8.55737e-16 5.10655e-16 4.54672e-06
2.19756e-16 1.37958e-15 3.04729e-06
7.06178e-16 3.69802e-16 1.64704e-06
3.45025e-16 6.72388e-16 4.36441e-07
0.00000e+00 0.00000e+00 0.00000e+00
0.00000e+00 0.00000e+00 0.00000e+00
3.95534e-16 8.03601e-16 3.27593e-07
4.01748e-16 5.17948e-16 1.14366e-06
3.14222e-16 3.54255e-16 2.09548e-06
3.76504e-16 5.15656e-16 3.26149e-06
1.27602e-15 1.33258e-15 4.35300e-06
6.01547e-16 8.74282e-16 5.41098e-06
1.52379e-15 7.14257e-16 6.15977e-06
4.10144e-16 6.94632e-17 6.76699e-06
3.17204e-16 5.89873e-16 7.12276e-06
8.83574e-16 1.21508e-15 7.30529e-06
4.45206e-16 5.15171e-16 7.16373e-06
1.01002e-15 5.83559e-16 6.86012e-06
8.95548e-16 2.96814e-16 6.36280e-06
7.81801e-16 3.00674e-16 5.72950e-06
4.57593e-16 1.05698e-15 4.81494e-06
4.54226e-16 6.94842e-16 3.66941e-06
2.88995e-16 1.01315e-15 2.44938e-06
1.83331e-17 9.35014e-16 1.31316e-06
1.43673e-15 1.22940e-15 3.82890e-07
0.00000e+00 0.00000e+00 0.00000e+00
0.00000e+00 0.00000e+00 0.00000e+00
6.19333e-16 2.41106e-16 1.69035e-07
3.80659e-16 7.01172e-17 7.49715e-07
1.04618e-15 1.60200e-16 1.49524e-06
9.98879e-18 1.20309e-15 2.26870e-06
1.31942e-16 1.75181e-15 3.22796e-06
1.27035e-16 1.24806e-15 4.05125e-06
1.38314e-15 6.25507e-16 4.72181e-06
3.57611e-16 7.84660e-16 5.10551e-06
1.69343e-16 1.57076e-16 5.44265e-06
4.92596e-16 7.66438e-16 5.48922e-06
4.32743e-16 9.46559e-16 5.44824e-06
1.62058e-15 8.26937e-16 5.22286e-06
2.88781e-16 5.91934e-16 4.87268e-06
3.78441e-16 4.26606e-17 4.36790e-06
4.70879e-16 8.19058e-16 3.59118e-06
1.24436e-15 1.71963e-15 2.65893e-06
1.06123e-15 9.18132e-17 1.75321e-06
8.53435e-16 5.33106e-16 9.23872e-07
4.83519e-16 1.10754e-15 2.07569e-07
0.00000e+00 0.00000e+00 0.00000e+00
0.00000e+00 0.00000e+00 0.00000e+00
6.88904e-16 2.49583e-16 1.32422e-07
5.92711e-16 4.13478e-16 3.31318e-07
1.03323e-16 1.00243e-15 7.52043e-07
1.25846e-16 9.80622e-16 1.48686e-06
9.83897e-18 6.43557e-16 2.07406e-06
1.63979e-15 7.99085e-16 2.63844e-06
8.48634e-16 4.05179e-16 2.99141e-06
9.82525e-16 5.64187e-16 3.28571e-06
7.53870e-16 1.11175e-15 3.47570e-06
3.96030e-16 4.64398e-16 3.62284e-06
1.77242e-15 9.81380e-16 3.56697e-06
1.31325e-15 1.25905e-15 3.37884e-06
1.17199e-16 7.37218e-16 3.16743e-06
1.63324e-16 5.72672e-16 2.86195e-06
7.71871e-17 1.95479e-16 2.40654e-06
8.49297e-16 7.39552e-16 1.73086e-06
7.72811e-16 2.58399e-16 9.69507e-07
6.37616e-16 2.08047e-16 4.28641e-07
7.53294e-16 3.16109e-16 1.73284e-07
0.00000e+00 0.00000e+00 0.00000e+00
0.00000e+00 0.00000e+00 0.00000e+00
1.22471e-15 6.73231e-16 1.89757e-07
4.94835e-16 1.39195e-16 2.76486e-07
5.07940e-16 1.13192e-16 3.21306e-07
6.32754e-16 1.10436e-15 7.49249e-07
2.57582e-16 4.22218e-16 1.14040e-06
3.54979e-16 3.31566e-16 1.37510e-06
8.72448e-16 7.34409e-16 1.62749e-06
1.38110e-15 1.68428e-16 1.73599e-06
7.87985e-16 1.08885e-15 1.85240e-06
1.22396e-15 5.84297e-18 1.86916e-06
1.38609e-15 7.09443e-16 1.88034e-06
2.68102e-16 1.11239e-15 1.80351e-06
2.82468e-16 2.91451e-16 1.71876e-06
4.03174e-16 4.39902e-16 1.58139e-06
1.38820e-16 3.30743e-16 1.28197e-06
4.88035e-16 2.08649e-16 9.24570e-07
4.64633e-16 6.43811e-16 4.09316e-07
1.06616e-15 2.50279e-16 1.83820e-07
6.85380e-17 4.84527e-16 1.96422e-07
0.00000e+00 0.00000e+00 0.00000e+00
0.00000e+00 0.00000e+00 0.00000e+00
3.67189e-16 1.99104e-16 1.38134e-07
4.14362e-16 2.44126e-17 2.09286e-07
5.99752e-16 3.34774e-16 1.33645e-07
6.93186e-16 8.18532e-16 1.76253e-07
2.87341e-16 7.00019e-16 3.18047e-07
3.43920e-16 2.27620e-16 3.70317e-07
1.34411e-17 4.07773e-16 4.26546e-07
4.46719e-16 2.38559e-16 4.56348e-07
2.26234e-16 5.42867e-16 4.80562e-07
7.07332e-16 3.74940e-16 4.96628e-07
8.34153e-17 6.87450e-16 4.98490e-07
3.64936e-16 3.37464e-16 4.83589e-07
1.15598e-16 6.58626e-16 4.78001e-07
1.09998e-16 1.12033e-15 4.04427e-07
1.34405e-16 4.01701e-16 3.87779e-07
1.65812e-16 1.91470e-16 2.03378e-07
9.86746e-17 7.24296e-17 1.87778e-07
5.91521e-16 2.33412e-16 1.95228e-07
8.41833e-17 3.89749e-16 1.24914e-07
0.00000e+00 0.00000e+00 0.00000e+00
0.00000e+00 0.00000e+00 0.00000e+00
0.00000e+00 0.00000e+00 0.00000e+00
0.00000e+00 0.00000e+00 0.00000e+00
0.00000e+00 0.00000e+00 0.00000e+00
0.00000e+00 0.00000e+00 0.00000e+00
0.00000e+00 0.00000e+00 0.00000e+00
0.00000e+00 0.00000e+00 0.00000e+00
0.00000e+00 0.00000e+00 0.00000e+00
0.00000e+00 0.00000e+00 0.00000e+00
0.00000e+00 0.00000e+00 0.00000e+00
0.00000e+00 0.00000e+00 0.00000e+00
0.00000e+00 0.00000e+00 0.00000e+00
0.00000e+00 0.00000e+00 0.00000e+00
0.00000e+00 0.00000e+00 0.00000e+00
0.00000e+00 0.00000e+00 0.00000e+00
0.00000e+00 0.00000e+00 0.00000e+00
0.00000e+00 0.00000e+00 0.00000e+00
0.00000e+00 0.00000e+00 0.00000e+00
0.00000e+00 0.00000e+00 0.00000e+00
0.00000e+00 0.00000e+00 0.00000e+00
0.00000e+00 0.00000e+00 0.00000e+00
</DataArray>
<DataArray Name="angDisp_error" type="Float32" NumberOfComponents="3" format="ascii">
0.00000e+00 0.00000e+00 0.00000e+00
0.00000e+00 0.00000e+00 0.00000e+00
0.00000e+00 0.00000e+00 0.00000e+00
0.00000e+00 0.00000e+00 0.00000e+00
0.00000e+00 0.00000e+00 0.00000e+00
0.00000e+00 0.00000e+00 0.00000e+00
0.00000e+00 0.00000e+00 0.00000e+00
0.00000e+00 0.00000e+00 0.00000e+00
0.00000e+00 0.00000e+00 0.00000e+00
0.00000e+00 0.00000e+00 0.00000e+00
0.00000e+00 0.00000e+00 0.00000e+00
0.00000e+00 0.00000e+00 0.00000e+00
0.00000e+00 0.00000e+00 0.00000e+00
0.00000e+00 0.00000e+00 0.00000e+00
0.00000e+00 0.00000e+00 0.00000e+00
0.00000e+00 0.00000e+00 0.00000e+00
0.00000e+00 0.00000e+00 0.00000e+00
0.00000e+00 0.00000e+00 0.00000e+00
0.00000e+00 0.00000e+00 0.00000e+00
0.00000e+00 0.00000e+00 0.00000e+00
0.00000e+00 0.00000e+00 0.00000e+00
0.00000e+00 0.00000e+00 0.00000e+00
2.02982e-05 2.05496e-05 1.67537e-16
4.06327e-05 5.29331e-05 3.33909e-16
3.48743e-05 5.77006e-05 5.90159e-17
1.77659e-05 5.17378e-05 9.38031e-16
3.74243e-05 5.02127e-05 6.67288e-16
1.41561e-06 3.80790e-05 5.89786e-16
3.70890e-05 3.04114e-05 1.58762e-15
8.22544e-06 2.20181e-05 4.16200e-16
3.66271e-05 7.11379e-06 9.61689e-16
1.08108e-05 4.50801e-06 8.17092e-16
3.59267e-05 1.70683e-05 6.00822e-16
7.36117e-06 1.20390e-05 1.39784e-16
3.72604e-05 3.97344e-05 8.90157e-17
2.17557e-06 2.97339e-05 5.21262e-16
3.81023e-05 5.73550e-05 5.33843e-16
1.86600e-05 4.58066e-05 1.69502e-16
3.49656e-05 6.19642e-05 2.69655e-16
4.10005e-05 4.96604e-05 6.59630e-17
2.10279e-05 2.20570e-05 7.30340e-16
0.00000e+00 0.00000e+00 0.00000e+00
0.00000e+00 0.00000e+00 0.00000e+00
5.29089e-05 4.11551e-05 2.06259e-17
5.18579e-05 5.03697e-05 4.07874e-18
6.80313e-05 6.35739e-05 3.54267e-16
4.29899e-05 5.96680e-05 8.01494e-16
6.96629e-05 5.57359e-05 1.29919e-15
1.98334e-05 4.61880e-05 8.32118e-16
6.49393e-05 3.27323e-05 6.52960e-16
3.24845e-06 2.81939e-05 5.15774e-16
6.25998e-05 4.98258e-06 6.19852e-16
1.95205e-06 9.87524e-06 7.55557e-17
6.30915e-05 2.45068e-05 9.88652e-17
3.76999e-06 9.17632e-06 5.72977e-16
6.52969e-05 5.17517e-05 3.19957e-16
1.93492e-05 2.93292e-05 1.70962e-16
6.89775e-05 7.01789e-05 8.57512e-18
4.30644e-05 4.65922e-05 2.20752e-16
6.68168e-05 7.29132e-05 6.13602e-16
5.15617e-05 4.57540e-05 3.13630e-16
5.26812e-05 4.38932e-05 9.23313e-16
0.00000e+00 0.00000e+00 0.00000e+00
0.00000e+00 0.00000e+00 0.00000e+00
5.77900e-05 3.57702e-05 2.23292e-16
6.36689e-05 6.65188e-05 5.80906e-17
9.09716e-05 9.15974e-05 6.63630e-16
5.17517e-05 7.86595e-05 1.16850e-15
8.37147e-05 7.34627e-05 5.75839e-16
2.33874e-05 5.95339e-05 6.59941e-16
7.78586e-05 4.21032e-05 1.12012e-16
4.82798e-06 3.56920e-05 3.99453e-16
7.25091e-05 4.66406e-06 1.00872e-16
1.80304e-06 1.48883e-05 6.33174e-17
7.18683e-05 3.44152e-05 3.58241e-16
2.90573e-06 7.40401e-06 1.66734e-16
7.51615e-05 7.00019e-05 2.40255e-16
2.32458e-05 3.41758e-05 7.74503e-16
8.10325e-05 9.75057e-05 1.03946e-16
5.23031e-05 5.98691e-05 1.81472e-16
9.01110e-05 1.03850e-04 1.88746e-16
6.37732e-05 5.77755e-05 6.56438e-16
5.75562e-05 3.90317e-05 2.41163e-16
0.00000e+00 0.00000e+00 0.00000e+00
0.00000e+00 0.00000e+00 0.00000e+00
5.10099e-05 1.95019e-05 6.89420e-16
5.69429e-05 3.98159e-05 3.69324e-17
7.79927e-05 5.26607e-05 1.29891e-15
3.35947e-05 3.83928e-05 1.91391e-16
7.18608e-05 4.11794e-05 1.03288e-16
6.54906e-06 3.17171e-05 6.46745e-17
6.58184e-05 2.11149e-05 5.99062e-16
8.86619e-06 2.49110e-05 8.16031e-16
6.52671e-05 5.18002e-06 1.13853e-16
1.39624e-05 1.95073e-05 2.12281e-16
6.67125e-05 3.38387e-05 7.20831e-16
5.28991e-06 1.41114e-05 3.77571e-16
6.88583e-05 5.74514e-05 3.50871e-16
1.26287e-05 2.74554e-06 2.52804e-16
7.34925e-05 7.18236e-05 2.29914e-16
3.73423e-05 1.21742e-05 9.35901e-18
7.85179e-05 7.20024e-05 1.74889e-16
5.84461e-05 3.01898e-05 1.21377e-15
5.13387e-05 2.47955e-05 1.10875e-15
0.00000e+00 0.00000e+00 0.00000e+00
0.00000e+00 0.00000e+00 0.00000e+00
5.24800e-05 4.00990e-05 3.73598e-16
5.85392e-05 6.78897e-05 2.54133e-16
8.15354e-05 8.53837e-05 7.61777e-16
4.55230e-05 7.36117e-05 6.96772e-16
8.32602e-05 7.17640e-05 2.63440e-16
2.41995e-05 5.72279e-05 2.26028e-16
7.99894e-05 3.75211e-05 7.77615e-17
7.91252e-06 3.91044e-05 1.99557e-16
7.42078e-05 2.48104e-06 2.17960e-16
6.25849e-07 2.40127e-05 1.18645e-15
7.16895e-05 4.55305e-05 6.52512e-16
2.83122e-06 5.85616e-06 6.93643e-16
7.09891e-05 8.40425e-05 1.06081e-15
1.78367e-05 1.60709e-05 1.62459e-16
7.47964e-05 1.09553e-04 6.32631e-16
4.05237e-05 4.07323e-05 2.83293e-17
7.71247e-05 1.06186e-04 2.90342e-16
5.56707e-05 5.22807e-05 4.32872e-16
5.14337e-05 4.63948e-05 7.23765e-16
0.00000e+00 0.00000e+00 0.00000e+00
0.00000e+00 0.00000e+00 0.00000e+00
3.48813e-05 2.71946e-06 2.56048e-16
3.85810e-05 1.41039e-05 2.58868e-16
5.10737e-05 2.21431e-05 5.68825e-16
1.66669e-05 1.12802e-05 8.79350e-16
4.43235e-05 1.68234e-05 8.34422e-16
7.18981e-06 1.37091e-05 3.77056e-16
3.99351e-05 4.00096e-06 1.12981e-16
2.03848e-05 1.95727e-05 2.18744e-16
4.07249e-05 1.58325e-05 1.07478e-17
2.00272e-05 2.67581e-05 8.16861e-16
4.46886e-05 3.80352e-05 1.19809e-15
1.24425e-05 3.69251e-05 1.88636e-16
5.09471e-05 5.47692e-05 2.98871e-16
4.18723e-06 3.53456e-05 9.55154e-16
5.61774e-05 6.15641e-05 5.17075e-16
2.55294e-05 2.45869e-05 6.15562e-16
5.93700e-05 5.08502e-05 8.51712e-16
4.22988e-05 5.58794e-07 8.64438e-16
3.70941e-05 1.00806e-05 4.81418e-16
0.00000e+00 0.00000e+00 0.00000e+00
0.00000e+00 0.00000e+00 0.00000e+00
3.56459e-05 4.10005e-05 2.37974e-16
4.24897e-05 6.46561e-05 3.67156e-16
5.73378e-05 8.05706e-05 1.81106e-15
3.85232e-05 7.07656e-05 1.03901e-15
6.29276e-05 6.62506e-05 1.09109e-15
2.79844e-05 5.71012e-05 9.00238e-16
6.32107e-05 3.22685e-05 1.36407e-16
1.63019e-05 3.96743e-05 9.50600e-17
5.77196e-05 8.83266e-06 7.49722e-16
7.83801e-06 3.08630e-05 4.33329e-17
5.23105e-05 5.26793e-05 1.23887e-15
6.40750e-06 1.77845e-05 3.09218e-16
4.97177e-05 9.24096e-05 2.41850e-16
1.08704e-05 2.01166e-06 1.15086e-16
4.87566e-05 1.15857e-04 2.68356e-16
2.37599e-05 2.67476e-05 6.75863e-16
4.80525e-05 1.08093e-04 7.20979e-16
3.49721e-05 4.55379e-05 1.04404e-15
3.24254e-05 4.96656e-05 5.59132e-17
0.00000e+00 0.00000e+00 0.00000e+00
0.00000e+00 0.00000e+00 0.00000e+00
1.50530e-05 7.48783e-06 2.45769e-16
1.44616e-05 2.32458e-06 3.99596e-16
1.74884e-05 2.57790e-06 1.35082e-15
2.08616e-07 5.48363e-06 1.27743e-15
8.49739e-06 1.34110e-06 4.73099e-16
1.75424e-05 9.08971e-07 3.85642e-16
4.76092e-06 8.25524e-06 2.00074e-16
2.35736e-05 1.57654e-05 4.00038e-17
9.48459e-06 2.21208e-05 1.58189e-16
1.83880e-05 3.22743e-05 7.20926e-16
1.45212e-05 4.08217e-05 9.32742e-16
1.03712e-05 4.95911e-05 1.34581e-17
2.36630e-05 5.44041e-05 4.04427e-16
9.08971e-07 5.76526e-05 1.90007e-17
3.06591e-05 5.32269e-05 7.02204e-17
1.52886e-05 4.90397e-05 4.64132e-16
3.23690e-05 3.53158e-05 7.79126e-16
2.41129e-05 2.26498e-05 6.01452e-16
1.95568e-05 1.05798e-06 5.68321e-16
0.00000e+00 0.00000e+00 0.00000e+00
0.00000e+00 0.00000e+00 0.00000e+00
1.49658e-05 4.01661e-05 1.14830e-16
2.15098e-05 6.38366e-05 9.74308e-16
2.84249e-05 7.52211e-05 1.20466e-15
2.73399e-05 6.87391e-05 1.05889e-15
3.49339e-05 6.33746e-05 1.05657e-15
2.81818e-05 5.71460e-05 6.55232e-16
3.74727e-05 3.04952e-05 3.84490e-16
2.08057e-05 4.14997e-05 1.71497e-16
3.07672e-05 1.27777e-05 3.92160e-16
1.22301e-05 3.21689e-05 9.91074e-16
2.36258e-05 5.39795e-05 2.05969e-16
5.56931e-06 2.35960e-05 3.10264e-16
1.76020e-05 9.26703e-05 5.54020e-16
5.45755e-07 3.91901e-06 4.02914e-16
1.43442e-05 1.18807e-04 7.72954e-16
3.51109e-06 2.09212e-05 1.70141e-15
1.24983e-05 1.09062e-04 1.23971e-15
8.92067e-06 4.25130e-05 3.13937e-16
9.49227e-06 5.04926e-05 7.84708e-16
0.00000e+00 0.00000e+00 0.00000e+00
0.00000e+00 0.00000e+00 0.00000e+00
5.34356e-06 1.10641e-05 4.24455e-16
8.84235e-06 5.75185e-06 1.04104e-15
1.65452e-05 3.78489e-06 2.55366e-16
1.70494e-05 1.02371e-05 1.18568e-15
2.32976e-05 8.37445e-06 4.52159e-16
2.31161e-05 2.92063e-06 1.06989e-15
2.32205e-05 1.41561e-05 1.64648e-17
1.92435e-05 1.41710e-05 1.78410e-16
1.59567e-05 2.35327e-05 1.24898e-15
1.22245e-05 3.19414e-05 1.15925e-15
6.63273e-06 3.96222e-05 1.40672e-16
4.68190e-06 4.99338e-05 4.15954e-16
2.37770e-06 5.08353e-05 6.19179e-16
3.28142e-06 6.08116e-05 6.35081e-16
8.12747e-06 4.77433e-05 6.31340e-17
6.10859e-06 5.79357e-05 1.80953e-16
6.58939e-06 2.92063e-05 7.18532e-16
4.72162e-06 2.86847e-05 6.43262e-16
2.54947e-06 2.16067e-06 2.96146e-16
0.00000e+00 0.00000e+00 0.00000e+00
0.00000e+00 0.00000e+00 0.00000e+00
6.52147e-06 3.82215e-05 2.31132e-16
1.43424e-06 6.36131e-05 3.80958e-16
3.39374e-06 7.25985e-05 5.05773e-16
1.23065e-05 7.06464e-05 7.11301e-16
3.66941e-06 6.23912e-05 1.28670e-15
2.02265e-05 5.89490e-05 6.11905e-16
4.61936e-06 3.02047e-05 2.51035e-16
1.79112e-05 4.17680e-05 1.89987e-16
1.91852e-06 1.04792e-05 1.72102e-16
9.58145e-06 3.07765e-05 4.93611e-16
1.04606e-05 5.05820e-05 4.91200e-16
1.39698e-06 2.09659e-05 1.18347e-16
1.89766e-05 8.82596e-05 3.59873e-16
1.35899e-05 1.34110e-07 9.09874e-16
2.60919e-05 1.14143e-04 1.01641e-15
2.02227e-05 2.67327e-05 3.30962e-16
2.50358e-05 1.07214e-04 3.32720e-16
1.93776e-05 4.45098e-05 7.47717e-16
1.44822e-05 4.97550e-05 9.87163e-16
0.00000e+00 0.00000e+00 0.00000e+00
0.00000e+00 0.00000e+00 0.00000e+00
2.39669e-05 7.32392e-06 6.40721e-16
3.08799e-05 3.01003e-06 1.77462e-16
4.38020e-05 1.13249e-06 4.76945e-16
3.05660e-05 1.71363e-06 1.56556e-16
4.99189e-05 5.79655e-06 3.21707e-16
2.13832e-05 1.38581e-06 6.78239e-16
4.64469e-05 1.14366e-05 2.50716e-16
9.05991e-06 1.50204e-05 3.70281e-17
3.70219e-05 2.11447e-05 8.99592e-16
1.51247e-06 2.73674e-05 8.46460e-16
2.61739e-05 3.56250e-05 1.26872e-16
9.67830e-06 3.95775e-05 2.07548e-16
1.79633e-05 4.65214e-05 3.49662e-17
1.06059e-05 4.75049e-05 1.08787e-16
1.37389e-05 4.24087e-05 8.23322e-17
1.38953e-06 4.29451e-05 2.09995e-16
1.66651e-05 2.83867e-05 5.96738e-16
1.32062e-05 1.97440e-05 7.56997e-16
1.38977e-05 4.84288e-07 1.20401e-15
0.00000e+00 0.00000e+00 0.00000e+00
0.00000e+00 0.00000e+00 0.00000e+00
2.80878e-05 3.64557e-05 3.99925e-16
2.74573e-05 6.62059e-05 1.16175e-15
3.62862e-05 7.32243e-05 9.63032e-16
9.70066e-06 7.47740e-05 1.73080e-15
3.12477e-05 6.29574e-05 7.07417e-16
7.66665e-06 6.15343e-05 8.93402e-16
3.22238e-05 3.16724e-05 8.91917e-16
1.22711e-05 4.16934e-05 7.95492e-16
3.92646e-05 4.86150e-06 7.72562e-16
5.69969e-06 2.55332e-05 6.66883e-16
4.91589e-05 4.36977e-05 1.30676e-16
9.26852e-06 9.68575e-06 3.33726e-16
6.22123e-05 7.83205e-05 5.32142e-16
2.72989e-05 1.29491e-05 2.05305e-16
6.83665e-05 1.04904e-04 9.24794e-17
4.44017e-05 3.90857e-05 1.68382e-16
6.50212e-05 1.01805e-04 2.86184e-17
4.80143e-05 5.07906e-05 1.02854e-15
3.88902e-05 4.78029e-05 9.79749e-16
0.00000e+00 0.00000e+00 0.00000e+00
0.00000e+00 0.00000e+00 0.00000e+00
4.11114e-05 1.75834e-06 9.40822e-16
5.11594e-05 2.26870e-05 1.22620e-15
6.85975e-05 1.95131e-05 9.30801e-16
3.92087e-05 1.85892e-05 1.00167e-17
7.01621e-05 1.10194e-05 3.58904e-16
1.87010e-05 1.57207e-05 1.10191e-15
6.44922e-05 9.23872e-07 6.20659e-16
9.53674e-07 1.80304e-05 1.28087e-16
5.30183e-05 1.34576e-05 5.81556e-17
1.57803e-05 2.04592e-05 5.34412e-16
4.36157e-05 3.09180e-05 5.83405e-17
2.25604e-05 2.43187e-05 2.10536e-16
3.41386e-05 4.53889e-05 7.45246e-17
1.65105e-05 2.07871e-05 5.89848e-17
3.27677e-05 4.80711e-05 5.16901e-16
3.04729e-06 1.43573e-05 2.98160e-18
3.69251e-05 4.10676e-05 3.26333e-16
2.90293e-05 2.98768e-06 8.01450e-16
2.99443e-05 7.37607e-06 7.29013e-16
0.00000e+00 0.00000e+00 0.00000e+00
0.00000e+00 0.00000e+00 0.00000e+00
4.75389e-05 3.57591e-05 3.04115e-16
4.99245e-05 7.10115e-05 3.10663e-16
6.72862e-05 7.61673e-05 6.76393e-16
3.05399e-05 7.88420e-05 5.78230e-16
6.32927e-05 6.69882e-05 6.17897e-16
6.86944e-06 6.31958e-05 2.39501e-16
6.19888e-05 3.70145e-05 1.34625e-16
2.87592e-06 3.95253e-05 3.58313e-16
6.84112e-05 1.10455e-06 8.18067e-16
2.01166e-06 1.83136e-05 6.95561e-17
7.88271e-05 3.65172e-05 6.15446e-17
1.72704e-05 2.64123e-06 9.19740e-18
9.18359e-05 6.90594e-05 1.39807e-15
4.16636e-05 2.63900e-05 1.40042e-16
1.01104e-04 9.80720e-05 1.73245e-16
6.65709e-05 5.12451e-05 2.76824e-16
9.92976e-05 9.97260e-05 8.33092e-17
7.13896e-05 5.95823e-05 4.49299e-16
5.89569e-05 4.49941e-05 7.53146e-16
0.00000e+00 0.00000e+00 0.00000e+00
0.00000e+00 0.00000e+00 0.00000e+00
5.43157e-05 1.76542e-05 5.64294e-16
6.42128e-05 4.72441e-05 2.67270e-16
8.43443e-05 4.89056e-05 3.73374e-16
4.63277e-05 4.35933e-05 4.77166e-16
8.11070e-05 3.60683e-05 4.58898e-17
1.97962e-05 3.39225e-05 4.29917e-18
7.45505e-05 1.83955e-05 4.53715e-16
3.87430e-06 2.41287e-05 8.57777e-17
6.41793e-05 2.51457e-06 2.98451e-16
1.91182e-05 1.38348e-05 2.95448e-16
5.49704e-05 2.67513e-05 4.45437e-16
2.17557e-05 2.41399e-06 4.10627e-16
4.75496e-05 4.91552e-05 3.10716e-16
1.27405e-05 8.88109e-06 7.08723e-17
4.84362e-05 6.22943e-05 4.67319e-16
1.17943e-05 1.96919e-05 2.83865e-16
5.81667e-05 6.40601e-05 7.83744e-16
4.38839e-05 3.28049e-05 3.42766e-16
4.44134e-05 2.19643e-05 1.40923e-17
0.00000e+00 0.00000e+00 0.00000e+00
0.00000e+00 0.00000e+00 0.00000e+00
5.52307e-05 3.32426e-05 4.53868e-16
6.03795e-05 6.85863e-05 5.47488e-16
8.44412e-05 8.57636e-05 2.28334e-16
4.80339e-05 8.22358e-05 4.14544e-16
7.49007e-05 7.11605e-05 3.22137e-16
1.94982e-05 6.17839e-05 4.22798e-16
7.31945e-05 4.13042e-05 4.33123e-16
4.60446e-06 3.59025e-05 1.18665e-16
7.59810e-05 7.30157e-06 5.49553e-16
5.18560e-06 1.12218e-05 9.44415e-16
8.32677e-05 2.71434e-05 9.36933e-17
1.88947e-05 1.32304e-05 5.70772e-16
9.50843e-05 6.04503e-05 2.61935e-16
4.29973e-05 4.03784e-05 8.06079e-17
1.04822e-04 9.00850e-05 4.19504e-16
7.10711e-05 6.60345e-05 2.81803e-16
1.07791e-04 1.00292e-04 4.47307e-16
7.49491e-05 6.22682e-05 3.81579e-16
6.39800e-05 3.86164e-05 4.69721e-16
0.00000e+00 0.00000e+00 0.00000e+00
0.00000e+00 0.00000e+00 0.00000e+00
5.42160e-05 4.01959e-05 5.71751e-16
5.39906e-05 5.36926e-05 3.02409e-16
6.94208e-05 6.21583e-05 4.42623e-17
4.71771e-05 6.17094e-05 3.15299e-16
7.05570e-05 5.35678e-05 9.17864e-17
2.23368e-05 4.78942e-05 5.52835e-17
6.32256e-05 3.22489e-05 1.49617e-15
2.36928e-06 2.73753e-05 5.11192e-16
5.73993e-05 6.90110e-06 1.07580e-16
7.06315e-06 6.74802e-06 2.72528e-16
5.31077e-05 2.19084e-05 2.19474e-16
8.49366e-06 1.42660e-05 1.89527e-16
5.09620e-05 4.77480e-05 4.64685e-18
2.54065e-06 3.41889e-05 1.11356e-16
5.40838e-05 6.65728e-05 2.17986e-16
2.74330e-05 4.99040e-05 9.81919e-17
5.62519e-05 6.98343e-05 2.00628e-16
4.25540e-05 4.67934e-05 1.75727e-16
4.83962e-05 4.25130e-05 1.76187e-16
0.00000e+00 0.00000e+00 0.00000e+00
0.00000e+00 0.00000e+00 0.00000e+00
1.95941e-05 1.97501e-05 3.04602e-16
4.01232e-05 5.34919e-05 1.72991e-16
3.25944e-05 5.65923e-05 4.28894e-16
1.77659e-05 5.30365e-05 2.28177e-16
3.54312e-05 4.90728e-05 5.66530e-18
2.91318e-06 3.86792e-05 3.45206e-16
3.69623e-05 3.08533e-05 3.85900e-16
4.78327e-06 2.07829e-05 3.00173e-16
3.81768e-05 8.45536e-06 2.66267e-16
5.63264e-06 3.30649e-06 4.44311e-16
4.08515e-05 1.47106e-05 8.25907e-16
1.08033e-06 1.34793e-05 3.49544e-16
4.55007e-05 3.77004e-05 8.40299e-17
9.52929e-06 3.11495e-05 6.17621e-16
4.73410e-05 5.59422e-05 6.14044e-17
2.47136e-05 4.70746e-05 1.26767e-15
4.12092e-05 6.14328e-05 4.75680e-16
4.47379e-05 5.08386e-05 5.29623e-16
2.28710e-05 2.18900e-05 2.45325e-16
0.00000e+00 0.00000e+00 0.00000e+00
0.00000e+00 0.00000e+00 0.00000e+00
0.00000e+00 0.00000e+00 0.00000e+00
0.00000e+00 0.00000e+00 0.00000e+00
0.00000e+00 0.00000e+00 0.00000e+00
0.00000e+00 0.00000e+00 0.00000e+00
0.00000e+00 0.00000e+00 0.00000e+00
0.00000e+00 0.00000e+00 0.00000e+00
0.00000e+00 0.00000e+00 0.00000e+00
0.00000e+00 0.00000e+00 0.00000e+00
0.00000e+00 0.00000e+00 0.00000e+00
0.00000e+00 0.00000e+00 0.00000e+00
0.00000e+00 0.00000e+00 0.00000e+00
0.00000e+00 0.00000e+00 0.00000e+00
0.00000e+00 0.00000e+00 0.00000e+00
0.00000e+00 0.00000e+00 0.00000e+00
0.00000e+00 0.00000e+00 0.00000e+00
0.00000e+00 0.00000e+00 0.00000e+00
0.00000e+00 0.00000e+00 0.00000e+00
0.00000e+00 0.00000e+00 0.00000e+00
0.00000e+00 0.00000e+00 0.00000e+00
0.00000e+00 0.00000e+00 0.00000e+00
</DataArray>
</PointData>
</Piece>
</UnstructuredGrid>
</VTKFile>