<?xml version="1.0"?>
<VTKFile type="UnstructuredGrid" version="0.1" byte_order="LittleEndian">
<UnstructuredGrid>
<Piece NumberOfPoints="441" NumberOfCells="400">
<Points>
<DataArray type="Float32" NumberOfComponents="3" format="ascii">
5.00000e-01 5.00000e-01 0.00000e+00
4.50000e-01 5.00000e-01 0.00000e+00
4.00000e-01 5.00000e-01 0.00000e+00
3.50000e-01 5.00000e-01 0.00000e+00
3.00000e-01 5.00000e-01 0.00000e+00
2.50000e-01 5.00000e-01 0.00000e+00
2.00000e-01 5.00000e-01 0.00000e+00
1.50000e-01 5.00000e-01 0.00000e+00
1.00000e-01 5.00000e-01 0.00000e+00
5.00000e-02 5.00000e-01 0.00000e+00
0.00000e+00 5.00000e-01 0.00000e+00
-5.00000e-02 5.00000e-01 0.00000e+00
-1.00000e-01 5.00000e-01 0.00000e+00
-1.50000e-01 5.00000e-01 0.00000e+00
-2.00000e-01 5.00000e-01 0.00000e+00
-2.50000e-01 5.00000e-01 0.00000e+00
-3.00000e-01 5.00000e-01 0.00000e+00
-3.50000e-01 5.00000e-01 0.00000e+00
-4.00000e-01 5.00000e-01 0.00000e+00
-4.50000e-01 5.00000e-01 0.00000e+00
-5.00000e-01 5.00000e-01 0.00000e+00
5.00000e-01 4.50000e-01 0.00000e+00
4.50000e-01 4.50000e-01 0.00000e+00
4.00000e-01 4.50000e-01 0.00000e+00
3.50000e-01 4.50000e-01 0.00000e+00
3.00000e-01 4.50000e-01 0.00000e+00
2.50000e-01 4.50000e-01 0.00000e+00
2.00000e-01 4.50000e-01 0.00000e+00
1.50000e-01 4.50000e-01 0.00000e+00
1.00000e-01 4.50000e-01 0.00000e+00
5.00000e-02 4.50000e-01 0.00000e+00
0.00000e+00 4.50000e-01 0.00000e+00
-5.00000e-02 4.50000e-01 0.00000e+00
-1.00000e-01 4.50000e-01 0.00000e+00
-1.50000e-01 4.50000e-01 0.00000e+00
-2.00000e-01 4.50000e-01 0.00000e+00
-2.50000e-01 4.50000e-01 0.00000e+00
-3.00000e-01 4.50000e-01 0.00000e+00
-3.50000e-01 4.50000e-01 0.00000e+00
-4.00000e-01 4.50000e-01 0.00000e+00
-4.50000e-01 4.50000e-01 0.00000e+00
-5.00000e-01 4.50000e-01 0.00000e+00
5.00000e-01 4.00000e-01 0.00000e+00
4.50000e-01 4.00000e-01 0.00000e+00
4.00000e-01 4.00000e-01 0.00000e+00
3.50000e-01 4.00000e-01 0.00000e+00
3.00000e-01 4.00000e-01 0.00000e+00
2.50000e-01 4.00000e-01 0.00000e+00
2.00000e-01 4.00000e-01 0.00000e+00
1.50000e-01 4.00000e-01 0.00000e+00
1.00000e-01 4.00000e-01 0.00000e+00
5.00000e-02 4.00000e-01 0.00000e+00
0.00000e+00 4.00000e-01 0.00000e+00
-5.00000e-02 4.00000e-01 0.00000e+00
-1.00000e-01 4.00000e-01 0.00000e+00
-1.50000e-01 4.00000e-01 0.00000e+00
-2.00000e-01 4.00000e-01 0.00000e+00
-2.50000e-01 4.00000e-01 0.00000e+00
-3.00000e-01 4.00000e-01 0.00000e+00
-3.50000e-01 4.00000e-01 0.00000e+00
-4.00000e-01 4.00000e-01 0.00000e+00
-4.50000e-01 4.00000e-01 0.00000e+00
-5.00000e-01 4.00000e-01 0.00000e+00
5.00000e-01 3.50000e-01 0.00000e+00
4.50000e-01 3.50000e-01 0.00000e+00
4.00000e-01 3.50000e-01 0.00000e+00
3.50000e-01 3.50000e-01 0.00000e+00
3.00000e-01 3.50000e-01 0.00000e+00
2.50000e-01 3.50000e-01 0.00000e+00
2.00000e-01 3.50000e-01 0.00000e+00
1.50000e-01 3.50000e-01 0.00000e+00
1.00000e-01 3.50000e-01 0.00000e+00
5.00000e-02 3.50000e-01 0.00000e+00
0.00000e+00 3.50000e-01 0.00000e+00
-5.00000e-02 3.50000e-01 0.00000e+00
-1.00000e-01 3.50000e-01 0.00000e+00
-1.50000e-01 3.50000e-01 0.00000e+00
-2.00000e-01 3.50000e-01 0.00000e+00
-2.50000e-01 3.50000e-01 0.00000e+00
-3.00000e-01 3.50000e-01 0.00000e+00
-3.50000e-01 3.50000e-01 0.00000e+00
-4.00000e-01 3.50000e-01 0.00000e+00
-4.50000e-01 3.50000e-01 0.00000e+00
-5.00000e-01 3.50000e-01 0.00000e+00
5.00000e-01 3.00000e-01 0.00000e+00
4.50000e-01 3.00000e-01 0.00000e+00
4.00000e-01 3.00000e-01 0.00000e+00
3.50000e-01 3.00000e-01 0.00000e+00
3.00000e-01 3.00000e-01 0.00000e+00
2.50000e-01 3.00000e-01 0.00000e+00
2.00000e-01 3.00000e-01 0.00000e+00
1.50000e-01 3.00000e-01 0.00000e+00
1.00000e-01 3.00000e-01 0.00000e+00
5.00000e-02 3.00000e-01 0.00000e+00
0.00000e+00 3.00000e-01 0.00000e+00
-5.00000e-02 3.00000e-01 0.00000e+00
-1.00000e-01 3.00000e-01 0.00000e+00
-1.50000e-01 3.00000e-01 0.00000e+00
-2.00000e-01 3.00000e-01 0.00000e+00
-2.50000e-01 3.00000e-01 0.00000e+00
-3.00000e-01 3.00000e-01 0.00000e+00
-3.50000e-01 3.00000e-01 0.00000e+00
-4.00000e-01 3.00000e-01 0.00000e+00
-4.50000e-01 3.00000e-01 0.00000e+00
-5.00000e-01 3.00000e-01 0.00000e+00
5.00000e-01 2.50000e-01 0.00000e+00
4.50000e-01 2.50000e-01 0.00000e+00
4.00000e-01 2.50000e-01 0.00000e+00
3.50000e-01 2.50000e-01 0.00000e+00
3.00000e-01 2.50000e-01 0.00000e+00
2.50000e-01 2.50000e-01 0.00000e+00
2.00000e-01 2.50000e-01 0.00000e+00
1.50000e-01 2.50000e-01 0.00000e+00
1.00000e-01 2.50000e-01 0.00000e+00
5.00000e-02 2.50000e-01 0.00000e+00
0.00000e+00 2.50000e-01 0.00000e+00
-5.00000e-02 2.50000e-01 0.00000e+00
-1.00000e-01 2.50000e-01 0.00000e+00
-1.50000e-01 2.50000e-01 0.00000e+00
-2.00000e-01 2.50000e-01 0.00000e+00
-2.50000e-01 2.50000e-01 0.00000e+00
-3.00000e-01 2.50000e-01 0.00000e+00
-3.50000e-01 2.50000e-01 0.00000e+00
-4.00000e-01 2.50000e-01 0.00000e+00
-4.50000e-01 2.50000e-01 0.00000e+00
-5.00000e-01 2.50000e-01 0.00000e+00
5.00000e-01 2.00000e-01 0.00000e+00
4.50000e-01 2.00000e-01 0.00000e+00
4.00000e-01 2.00000e-01 0.00000e+00
3.50000e-01 2.00000e-01 0.00000e+00
3.00000e-01 2.00000e-01 0.00000e+00
2.50000e-01 2.00000e-01 0.00000e+00
2.00000e-01 2.00000e-01 0.00000e+00
1.50000e-01 2.00000e-01 0.00000e+00
1.00000e-01 2.00000e-01 0.00000e+00
5.00000e-02 2.00000e-01 0.00000e+00
0.00000e+00 2.00000e-01 0.00000e+00
-5.00000e-02 2.00000e-01 0.00000e+00
-1.00000e-01 2.00000e-01 0.00000e+00
-1.50000e-01 2.00000e-01 0.00000e+00
-2.00000e-01 2.00000e-01 0.00000e+00
-2.50000e-01 2.00000e-01 0.00000e+00
-3.00000e-01 2.00000e-01 0.00000e+00
-3.50000e-01 2.00000e-01 0.00000e+00
-4.00000e-01 2.00000e-01 0.00000e+00
-4.50000e-01 2.00000e-01 0.00000e+00
-5.00000e-01 2.00000e-01 0.00000e+00
5.00000e-01 1.50000e-01 0.00000e+00
4.50000e-01 1.50000e-01 0.00000e+00
4.00000e-01 1.50000e-01 0.00000e+00
3.50000e-01 1.50000e-01 0.00000e+00
3.00000e-01 1.50000e-01 0.00000e+00
2.50000e-01 1.50000e-01 0.00000e+00
2.00000e-01 1.50000e-01 0.00000e+00
1.50000e-01 1.50000e-01 0.00000e+00
1.00000e-01 1.50000e-01 0.00000e+00
5.00000e-02 1.50000e-01 0.00000e+00
0.00000e+00 1.50000e-01 0.00000e+00
-5.00000e-02 1.50000e-01 0.00000e+00
-1.00000e-01 1.50000e-01 0.00000e+00
-1.50000e-01 1.50000e-01 0.00000e+00
-2.00000e-01 1.50000e-01 0.00000e+00
-2.50000e-01 1.50000e-01 0.00000e+00
-3.00000e-01 1.50000e-01 0.00000e+00
-3.50000e-01 1.50000e-01 0.00000e+00
-4.00000e-01 1.50000e-01 0.00000e+00
-4.50000e-01 1.50000e-01 0.00000e+00
-5.00000e-01 1.50000e-01 0.00000e+00
5.00000e-01 1.00000e-01 0.00000e+00
4.50000e-01 1.00000e-01 0.00000e+00
4.00000e-01 1.00000e-01 0.00000e+00
3.50000e-01 1.00000e-01 0.00000e+00
3.00000e-01 1.00000e-01 0.00000e+00
2.50000e-01 1.00000e-01 0.00000e+00
2.00000e-01 1.00000e-01 0.00000e+00
1.50000e-01 1.00000e-01 0.00000e+00
1.00000e-01 1.00000e-01 0.00000e+00
5.00000e-02 1.00000e-01 0.00000e+00
0.00000e+00 1.00000e-01 0.00000e+00
-5.00000e-02 1.00000e-01 0.00000e+00
-1.00000e-01 1.00000e-01 0.00000e+00
-1.50000e-01 1.00000e-01 0.00000e+00
-2.00000e-01 1.00000e-01 0.00000e+00
-2.50000e-01 1.00000e-01 0.00000e+00
-3.00000e-01 1.00000e-01 0.00000e+00
-3.50000e-01 1.00000e-01 0.00000e+00
-4.00000e-01 1.00000e-01 0.00000e+00
-4.50000e-01 1.00000e-01 0.00000e+00
-5.00000e-01 1.00000e-01 0.00000e+00
5.00000e-01 5.00000e-02 0.00000e+00
4.50000e-01 5.00000e-02 0.00000e+00
4.00000e-01 5.00000e-02 0.00000e+00
3.50000e-01 5.00000e-02 0.00000e+00
3.00000e-01 5.00000e-02 0.00000e+00
2.50000e-01 5.00000e-02 0.00000e+00
2.00000e-01 5.00000e-02 0.00000e+00
1.50000e-01 5.00000e-02 0.00000e+00
1.00000e-01 5.00000e-02 0.00000e+00
5.00000e-02 5.00000e-02 0.00000e+00
0.00000e+00 5.00000e-02 0.00000e+00
-5.00000e-02 5.00000e-02 0.00000e+00
-1.00000e-01 5.00000e-02 0.00000e+00
-1.50000e-01 5.00000e-02 0.00000e+00
-2.00000e-01 5.00000e-02 0.00000e+00
-2.50000e-01 5.00000e-02 0.00000e+00
-3.00000e-01 5.00000e-02 0.00000e+00
-3.50000e-01 5.00000e-02 0.00000e+00
-4.00000e-01 5.00000e-02 0.00000e+00
-4.50000e-01 5.00000e-02 0.00000e+00
-5.00000e-01 5.00000e-02 0.00000e+00
5.00000e-01 0.00000e+00 0.00000e+00
4.50000e-01 0.00000e+00 0.00000e+00
4.00000e-01 0.00000e+00 0.00000e+00
3.50000e-01 0.00000e+00 0.00000e+00
3.00000e-01 0.00000e+00 0.00000e+00
2.50000e-01 0.00000e+00 0.00000e+00
2.00000e-01 0.00000e+00 0.00000e+00
1.50000e-01 0.00000e+00 0.00000e+00
1.00000e-01 0.00000e+00 0.00000e+00
5.00000e-02 0.00000e+00 0.00000e+00
0.00000e+00 0.00000e+00 0.00000e+00
-5.00000e-02 0.00000e+00 0.00000e+00
-1.00000e-01 0.00000e+00 0.00000e+00
-1.50000e-01 0.00000e+00 0.00000e+00
-2.00000e-01 0.00000e+00 0.00000e+00
-2.50000e-01 0.00000e+00 0.00000e+00
-3.00000e-01 0.00000e+00 0.00000e+00
-3.50000e-01 0.00000e+00 0.00000e+00
-4.00000e-01 0.00000e+00 0.00000e+00
-4.50000e-01 0.00000e+00 0.00000e+00
-5.00000e-01 0.00000e+00 0.00000e+00
5.00000e-01 -5.00000e-02 0.00000e+00
4.50000e-01 -5.00000e-02 0.00000e+00
4.00000e-01 -5.00000e-02 0.00000e+00
3.50000e-01 -5.00000e-02 0.00000e+00
3.00000e-01 -5.00000e-02 0.00000e+00
2.50000e-01 -5.00000e-02 0.00000e+00
2.00000e-01 -5.00000e-02 0.00000e+00
1.50000e-01 -5.00000e-02 0.00000e+00
1.00000e-01 -5.00000e-02 0.00000e+00
5.00000e-02 -5.00000e-02 0.00000e+00
0.00000e+00 -5.00000e-02 0.00000e+00
-5.00000e-02 -5.00000e-02 0.00000e+00
-1.00000e-01 -5.00000e-02 0.00000e+00
-1.50000e-01 -5.00000e-02 0.00000e+00
-2.00000e-01 -5.00000e-02 0.00000e+00
-2.50000e-01 -5.00000e-02 0.00000e+00
-3.00000e-01 -5.00000e-02 0.00000e+00
-3.50000e-01 -5.00000e-02 0.00000e+00
-4.00000e-01 -5.00000e-02 0.00000e+00
-4.50000e-01 -5.00000e-02 0.00000e+00
-5.00000e-01 -5.00000e-02 0.00000e+00
5.00000e-01 -1.00000e-01 0.00000e+00
4.50000e-01 -1.00000e-01 0.00000e+00
4.00000e-01 -1.00000e-01 0.00000e+00
3.50000e-01 -1.00000e-01 0.00000e+00
3.00000e-01 -1.00000e-01 0.00000e+00
2.50000e-01 -1.00000e-01 0.00000e+00
2.00000e-01 -1.00000e-01 0.00000e+00
1.50000e-01 -1.00000e-01 0.00000e+00
1.00000e-01 -1.00000e-01 0.00000e+00
5.00000e-02 -1.00000e-01 0.00000e+00
0.00000e+00 -1.00000e-01 0.00000e+00
-5.00000e-02 -1.00000e-01 0.00000e+00
-1.00000e-01 -1.00000e-01 0.00000e+00
-1.50000e-01 -1.00000e-01 0.00000e+00
-2.00000e-01 -1.00000e-01 0.00000e+00
-2.50000e-01 -1.00000e-01 0.00000e+00
-3.00000e-01 -1.00000e-01 0.00000e+00
-3.50000e-01 -1.00000e-01 0.00000e+00
-4.00000e-01 -1.00000e-01 0.00000e+00
-4.50000e-01 -1.00000e-01 0.00000e+00
-5.00000e-01 -1.00000e-01 0.00000e+00
5.00000e-01 -1.50000e-01 0.00000e+00
4.50000e-01 -1.50000e-01 0.00000e+00
4.00000e-01 -1.50000e-01 0.00000e+00
3.50000e-01 -1.50000e-01 0.00000e+00
3.00000e-01 -1.50000e-01 0.00000e+00
2.50000e-01 -1.50000e-01 0.00000e+00
2.00000e-01 -1.50000e-01 0.00000e+00
1.50000e-01 -1.50000e-01 0.00000e+00
1.00000e-01 -1.50000e-01 0.00000e+00
5.00000e-02 -1.50000e-01 0.00000e+00
0.00000e+00 -1.50000e-01 0.00000e+00
-5.00000e-02 -1.50000e-01 0.00000e+00
-1.00000e-01 -1.50000e-01 0.00000e+00
-1.50000e-01 -1.50000e-01 0.00000e+00
-2.00000e-01 -1.50000e-01 0.00000e+00
-2.50000e-01 -1.50000e-01 0.00000e+00
-3.00000e-01 -1.50000e-01 0.00000e+00
-3.50000e-01 -1.50000e-01 0.00000e+00
-4.00000e-01 -1.50000e-01 0.00000e+00
-4.50000e-01 -1.50000e-01 0.00000e+00
-5.00000e-01 -1.50000e-01 0.00000e+00
5.00000e-01 -2.00000e-01 0.00000e+00
4.50000e-01 -2.00000e-01 0.00000e+00
4.00000e-01 -2.00000e-01 0.00000e+00
3.50000e-01 -2.00000e-01 0.00000e+00
3.00000e-01 -2.00000e-01 0.00000e+00
2.50000e-01 -2.00000e-01 0.00000e+00
2.00000e-01 -2.00000e-01 0.00000e+00
1.50000e-01 -2.00000e-01 0.00000e+00
1.00000e-01 -2.00000e-01 0.00000e+00
5.00000e-02 -2.00000e-01 0.00000e+00
0.00000e+00 -2.00000e-01 0.00000e+00
-5.00000e-02 -2.00000e-01 0.00000e+00
-1.00000e-01 -2.00000e-01 0.00000e+00
-1.50000e-01 -2.00000e-01 0.00000e+00
-2.00000e-01 -2.00000e-01 0.00000e+00
-2.50000e-01 -2.00000e-01 0.00000e+00
-3.00000e-01 -2.00000e-01 0.00000e+00
-3.50000e-01 -2.00000e-01 0.00000e+00
-4.00000e-01 -2.00000e-01 0.00000e+00
-4.50000e-01 -2.00000e-01 0.00000e+00
-5.00000e-01 -2.00000e-01 0.00000e+00
5.00000e-01 -2.50000e-01 0.00000e+00
4.50000e-01 -2.50000e-01 0.00000e+00
4.00000e-01 -2.50000e-01 0.00000e+00
3.50000e-01 -2.50000e-01 0.00000e+00
3.00000e-01 -2.50000e-01 0.00000e+00
2.50000e-01 -2.50000e-01 0.00000e+00
2.00000e-01 -2.50000e-01 0.00000e+00
1.50000e-01 -2.50000e-01 0.00000e+00
1.00000e-01 -2.50000e-01 0.00000e+00
5.00000e-02 -2.50000e-01 0.00000e+00
0.00000e+00 -2.50000e-01 0.00000e+00
-5.00000e-02 -2.50000e-01 0.00000e+00
-1.00000e-01 -2.50000e-01 0.00000e+00
-1.50000e-01 -2.50000e-01 0.00000e+00
-2.00000e-01 -2.50000e-01 0.00000e+00
-2.50000e-01 -2.50000e-01 0.00000e+00
-3.00000e-01 -2.50000e-01 0.00000e+00
-3.50000e-01 -2.50000e-01 0.00000e+00
-4.00000e-01 -2.50000e-01 0.00000e+00
-4.50000e-01 -2.50000e-01 0.00000e+00
-5.00000e-01 -2.50000e-01 0.00000e+00
5.00000e-01 -3.00000e-01 0.00000e+00
4.50000e-01 -3.00000e-01 0.00000e+00
4.00000e-01 -3.00000e-01 0.00000e+00
3.50000e-01 -3.00000e-01 0.00000e+00
3.00000e-01 -3.00000e-01 0.00000e+00
2.50000e-01 -3.00000e-01 0.00000e+00
2.00000e-01 -3.00000e-01 0.00000e+00
1.50000e-01 -3.00000e-01 0.00000e+00
1.00000e-01 -3.00000e-01 0.00000e+00
5.00000e-02 -3.00000e-01 0.00000e+00
0.00000e+00 -3.00000e-01 0.00000e+00
-5.00000e-02 -3.00000e-01 0.00000e+00
-1.00000e-01 -3.00000e-01 0.00000e+00
-1.50000e-01 -3.00000e-01 0.00000e+00
-2.00000e-01 -3.00000e-01 0.00000e+00
-2.50000e-01 -3.00000e-01 0.00000e+00
-3.00000e-01 -3.00000e-01 0.00000e+00
-3.50000e-01 -3.00000e-01 0.00000e+00
-4.00000e-01 -3.00000e-01 0.00000e+00
-4.50000e-01 -3.00000e-01 0.00000e+00
-5.00000e-01 -3.00000e-01 0.00000e+00
5.00000e-01 -3.50000e-01 0.00000e+00
4.50000e-01 -3.50000e-01 0.00000e+00
4.00000e-01 -3.50000e-01 0.00000e+00
3.50000e-01 -3.50000e-01 0.00000e+00
3.00000e-01 -3.50000e-01 0.00000e+00
2.50000e-01 -3.50000e-01 0.00000e+00
2.00000e-01 -3.50000e-01 0.00000e+00
1.50000e-01 -3.50000e-01 0.00000e+00
1.00000e-01 -3.50000e-01 0.00000e+00
5.00000e-02 -3.50000e-01 0.00000e+00
0.00000e+00 -3.50000e-01 0.00000e+00
-5.00000e-02 -3.50000e-01 0.00000e+00
-1.00000e-01 -3.50000e-01 0.00000e+00
-1.50000e-01 -3.50000e-01 0.00000e+00
-2.00000e-01 -3.50000e-01 0.00000e+00
-2.50000e-01 -3.50000e-01 0.00000e+00
-3.00000e-01 -3.50000e-01 0.00000e+00
-3.50000e-01 -3.50000e-01 0.00000e+00
-4.00000e-01 -3.50000e-01 0.00000e+00
-4.50000e-01 -3.50000e-01 0.00000e+00
-5.00000e-01 -3.50000e-01 0.00000e+00
5.00000e-01 -4.00000e-01 0.00000e+00
4.50000e-01 -4.00000e-01 0.00000e+00
4.00000e-01 -4.00000e-01 0.00000e+00
3.50000e-01 -4.00000e-01 0.00000e+00
3.00000e-01 -4.00000e-01 0.00000e+00
2.50000e-01 -4.00000e-01 0.00000e+00
2.00000e-01 -4.00000e-01 0.00000e+00
1.50000e-01 -4.00000e-01 0.00000e+00
1.00000e-01 -4.00000e-01 0.00000e+00
5.00000e-02 -4.00000e-01 0.00000e+00
0.00000e+00 -4.00000e-01 0.00000e+00
-5.00000e-02 -4.00000e-01 0.00000e+00
-1.00000e-01 -4.00000e-01 0.00000e+00
-1.50000e-01 -4.00000e-01 0.00000e+00
-2.00000e-01 -4.00000e-01 0.00000e+00
-2.50000e-01 -4.00000e-01 0.00000e+00
-3.00000e-01 -4.00000e-01 0.00000e+00
-3.50000e-01 -4.00000e-01 0.00000e+00
-4.00000e-01 -4.00000e-01 0.00000e+00
-4.50000e-01 -4.00000e-01 0.00000e+00
-5.00000e-01 -4.00000e-01 0.00000e+00
5.00000e-01 -4.50000e-01 0.00000e+00
4.50000e-01 -4.50000e-01 0.00000e+00
4.00000e-01 -4.50000e-01 0.00000e+00
3.50000e-01 -4.50000e-01 0.00000e+00
3.00000e-01 -4.50000e-01 0.00000e+00
2.50000e-01 -4.50000e-01 0.00000e+00
2.00000e-01 -4.50000e-01 0.00000e+00
1.50000e-01 -4.50000e-01 0.00000e+00
1.00000e-01 -4.50000e-01 0.00000e+00
5.00000e-02 -4.50000e-01 0.00000e+00
0.00000e+00 -4.50000e-01 0.00000e+00
-5.00000e-02 -4.50000e-01 0.00000e+00
-1.00000e-01 -4.50000e-01 0.00000e+00
-1.50000e-01 -4.50000e-01 0.00000e+00
-2.00000e-01 -4.50000e-01 0.00000e+00
-2.50000e-01 -4.50000e-01 0.00000e+00
-3.00000e-01 -4.50000e-01 0.00000e+00
-3.50000e-01 -4.50000e-01 0.00000e+00
-4.00000e-01 -4.50000e-01 0.00000e+00
-4.50000e-01 -4.50000e-01 0.00000e+00
-5.00000e-01 -4.50000e-01 0.00000e+00
5.00000e-01 -5.00000e-01 0.00000e+00
4.50000e-01 -5.00000e-01 0.00000e+00
4.00000e-01 -5.00000e-01 0.00000e+00
3.50000e-01 -5.00000e-01 0.00000e+00
3.00000e-01 -5.00000e-01 0.00000e+00
2.50000e-01 -5.00000e-01 0.00000e+00
2.00000e-01 -5.00000e-01 0.00000e+00
1.50000e-01 -5.00000e-01 0.00000e+00
1.00000e-01 -5.00000e-01 0.00000e+00
5.00000e-02 -5.00000e-01 0.00000e+00
0.00000e+00 -5.00000e-01 0.00000e+00
-5.00000e-02 -5.00000e-01 0.00000e+00
-1.00000e-01 -5.00000e-01 0.00000e+00
-1.50000e-01 -5.00000e-01 0.00000e+00
-2.00000e-01 -5.00000e-01 0.00000e+00
-2.50000e-01 -5.00000e-01 0.00000e+00
-3.00000e-01 -5.00000e-01 0.00000e+00
-3.50000e-01 -5.00000e-01 0.00000e+00
-4.00000e-01 -5.00000e-01 0.00000e+00
-4.50000e-01 -5.00000e-01 0.00000e+00
-5.00000e-01 -5.00000e-01 0.00000e+00
</DataArray>
</Points>
<Cells>
<DataArray Name="connectivity" type="Int32" format="ascii">
0 1 22 21
1 2 23 22
2 3 24 23
3 4 25 24
4 5 26 25
5 6 27 26
6 7 28 27
7 8 29 28
8 9 30 29
9 10 31 30
10 11 32 31
11 12 33 32
12 13 34 33
13 14 35 34
14 15 36 35
15 16 37 36
16 17 38 37
17 18 39 38
18 19 40 39
19 20 41 40
21 22 43 42
22 23 44 43
23 24 45 44
24 25 46 45
25 26 47 46
26 27 48 47
27 28 49 48
28 29 50 49
29 30 51 50
30 31 52 51
31 32 53 52
32 33 54 53
33 34 55 54
34 35 56 55
35 36 57 56
36 37 58 57
37 38 59 58
38 39 60 59
39 40 61 60
40 41 62 61
42 43 64 63
43 44 65 64
44 45 66 65
45 46 67 66
46 47 68 67
47 48 69 68
48 49 70 69
49 50 71 70
50 51 72 71
51 52 73 72
52 53 74 73
53 54 75 74
54 55 76 75
55 56 77 76
56 57 78 77
57 58 79 78
58 59 80 79
59 60 81 80
60 61 82 81
61 62 83 82
63 64 85 84
64 65 86 85
65 66 87 86
66 67 88 87
67 68 89 88
68 69 90 89
69 70 91 90
70 71 92 91
71 72 93 92
72 73 94 93
73 74 95 94
74 75 96 95
75 76 97 96
76 77 98 97
77 78 99 98
78 79 100 99
79 80 101 100
80 81 102 101
81 82 103 102
82 83 104 103
84 85 106 105
85 86 107 106
86 87 108 107
87 88 109 108
88 89 110 109
89 90 111 110
90 91 112 111
91 92 113 112
92 93 114 113
93 94 115 114
94 95 116 115
95 96 117 116
96 97 118 117
97 98 119 118
98 99 120 119
99 100 121 120
100 101 122 121
101 102 123 122
102 103 124 123
103 104 125 124
105 106 127 126
106 107 128 127
107 108 129 128
108 109 130 129
109 110 131 130
110 111 132 131
111 112 133 132
112 113 134 133
113 114 135 134
114 115 136 135
115 116 137 136
116 117 138 137
117 118 139 138
118 119 140 139
119 120 141 140
120 121 142 141
121 122 143 142
122 123 144 143
123 124 145 144
124 125 146 145
126 127 148 147
127 128 149 148
128 129 150 149
129 130 151 150
130 131 152 151
131 132 153 152
132 133 154 153
133 134 155 154
134 135 156 155
135 136 157 156
136 137 158 157
137 138 159 158
138 139 160 159
139 140 161 160
140 141 162 161
141 142 163 162
142 143 164 163
143 144 165 164
144 145 166 165
145 146 167 166
147 148 169 168
148 149 170 169
149 150 171 170
150 151 172 171
151 152 173 172
152 153 174 173
153 154 175 174
154 155 176 175
155 156 177 176
156 157 178 177
157 158 179 178
158 159 180 179
159 160 181 180
160 161 182 181
161 162 183 182
162 163 184 183
163 164 185 184
164 165 186 185
165 166 187 186
166 167 188 187
168 169 190 189
169 170 191 190
170 171 192 191
171 172 193 192
172 173 194 193
173 174 195 194
174 175 196 195
175 176 197 196
176 177 198 197
177 178 199 198
178 179 200 199
179 180 201 200
180 181 202 201
181 182 203 202
182 183 204 203
183 184 205 204
184 185 206 205
185 186 207 206
186 187 208 207
187 188 209 208
189 190 211 210
190 191 212 211
191 192 213 212
192 193 214 213
193 194 215 214
194 195 216 215
195 196 217 216
196 197 218 217
197 198 219 218
198 199 220 219
199 200 221 220
200 201 222 221
201 202 223 222
202 203 224 223
203 204 225 224
204 205 226 225
205 206 227 226
206 207 228 227
207 208 229 228
208 209 230 229
210 211 232 231
211 212 233 232
212 213 234 233
213 214 235 234
214 215 236 235
215 216 237 236
216 217 238 237
217 218 239 238
218 219 240 239
219 220 241 240
220 221 242 241
221 222 243 242
222 223 244 243
223 224 245 244
224 225 246 245
225 226 247 246
226 227 248 247
227 228 249 248
228 229 250 249
229 230 251 250
231 232 253 252
232 233 254 253
233 234 255 254
234 235 256 255
235 236 257 256
236 237 258 257
237 238 259 258
238 239 260 259
239 240 261 260
240 241 262 261
241 242 263 262
242 243 264 263
243 244 265 264
244 245 266 265
245 246 267 266
246 247 268 267
247 248 269 268
248 249 270 269
249 250 271 270
250 251 272 271
252 253 274 273
253 254 275 274
254 255 276 275
255 256 277 276
256 257 278 277
257 258 279 278
258 259 280 279
259 260 281 280
260 261 282 281
261 262 283 282
262 263 284 283
263 264 285 284
264 265 286 285
265 266 287 286
266 267 288 287
267 268 289 288
268 269 290 289
269 270 291 290
270 271 292 291
271 272 293 292
273 274 295 294
274 275 296 295
275 276 297 296
276 277 298 297
277 278 299 298
278 279 300 299
279 280 301 300
280 281 302 301
281 282 303 302
282 283 304 303
283 284 305 304
284 285 306 305
285 286 307 306
286 287 308 307
287 288 309 308
288 289 310 309
289 290 311 310
290 291 312 311
291 292 313 312
292 293 314 313
294 295 316 315
295 296 317 316
296 297 318 317
297 298 319 318
298 299 320 319
299 300 321 320
300 301 322 321
301 302 323 322
302 303 324 323
303 304 325 324
304 305 326 325
305 306 327 326
306 307 328 327
307 308 329 328
308 309 330 329
309 310 331 330
310 311 332 331
311 312 333 332
312 313 334 333
313 314 335 334
315 316 337 336
316 317 338 337
317 318 339 338
318 319 340 339
319 320 341 340
320 321 342 341
321 322 343 342
322 323 344 343
323 324 345 344
324 325 346 345
325 326 347 346
326 327 348 347
327 328 349 348
328 329 350 349
329 330 351 350
330 331 352 351
331 332 353 352
332 333 354 353
333 334 355 354
334 335 356 355
336 337 358 357
337 338 359 358
338 339 360 359
339 340 361 360
340 341 362 361
341 342 363 362
342 343 364 363
343 344 365 364
344 345 366 365
345 346 367 366
346 347 368 367
347 348 369 368
348 349 370 369
349 350 371 370
350 351 372 371
351 352 373 372
352 353 374 373
353 354 375 374
354 355 376 375
355 356 377 376
357 358 379 378
358 359 380 379
359 360 381 380
360 361 382 381
361 362 383 382
362 363 384 383
363 364 385 384
364 365 386 385
365 366 387 386
366 367 388 387
367 368 389 388
368 369 390 389
369 370 391 390
370 371 392 391
371 372 393 392
372 373 394 393
373 374 395 394
374 375 396 395
375 376 397 396
376 377 398 397
378 379 400 399
379 380 401 400
380 381 402 401
381 382 403 402
382 383 404 403
383 384 405 404
384 385 406 405
385 386 407 406
386 387 408 407
387 388 409 408
388 389 410 409
389 390 411 410
390 391 412 411
391 392 413 412
392 393 414 413
393 394 415 414
394 395 416 415
395 396 417 416
396 397 418 417
397 398 419 418
399 400 421 420
400 401 422 421
401 402 423 422
402 403 424 423
403 404 425 424
404 405 426 425
405 406 427 426
406 407 428 427
407 408 429 428
408 409 430 429
409 410 431 430
410 411 432 431
411 412 433 432
412 413 434 433
413 414 435 434
414 415 436 435
415 416 437 436
416 417 438 437
417 418 439 438
418 419 440 439
</DataArray>
<DataArray Name="offsets" type="Int32" format="ascii">
4
8
12
16
20
24
28
32
36
40
44
48
52
56
60
64
68
72
76
80
84
88
92
96
100
104
108
112
116
120
124
128
132
136
140
144
148
152
156
160
164
168
172
176
180
184
188
192
196
200
204
208
212
216
220
224
228
232
236
240
244
248
252
256
260
264
268
272
276
280
284
288
292
296
300
304
308
312
316
320
324
328
332
336
340
344
348
352
356
360
364
368
372
376
380
384
388
392
396
400
404
408
412
416
420
424
428
432
436
440
444
448
452
456
460
464
468
472
476
480
484
488
492
496
500
504
508
512
516
520
524
528
532
536
540
544
548
552
556
560
564
568
572
576
580
584
588
592
596
600
604
608
612
616
620
624
628
632
636
640
644
648
652
656
660
664
668
672
676
680
684
688
692
696
700
704
708
712
716
720
724
728
732
736
740
744
748
752
756
760
764
768
772
776
780
784
788
792
796
800
804
808
812
816
820
824
828
832
836
840
844
848
852
856
860
864
868
872
876
880
884
888
892
896
900
904
908
912
916
920
924
928
932
936
940
944
948
952
956
960
964
968
972
976
980
984
988
992
996
1000
1004
1008
1012
1016
1020
1024
1028
1032
1036
1040
1044
1048
1052
1056
1060
1064
1068
1072
1076
1080
1084
1088
1092
1096
1100
1104
1108
1112
1116
1120
1124
1128
1132
1136
1140
1144
1148
1152
1156
1160
1164
1168
1172
1176
1180
1184
1188
1192
1196
1200
1204
1208
1212
1216
1220
1224
1228
1232
1236
1240
1244
1248
1252
1256
1260
1264
1268
1272
1276
1280
1284
1288
1292
1296
1300
1304
1308
1312
1316
1320
1324
1328
1332
1336
1340
1344
1348
1352
1356
1360
1364
1368
1372
1376
1380
1384
1388
1392
1396
1400
1404
1408
1412
1416
1420
1424
1428
1432
1436
1440
1444
1448
1452
1456
1460
1464
1468
1472
1476
1480
1484
1488
1492
1496
1500
1504
1508
1512
1516
1520
1524
1528
1532
1536
1540
1544
1548
1552
1556
1560
1564
1568
1572
1576
1580
1584
1588
1592
1596
1600
</DataArray>
<DataArray Name="types" type="UInt8" format="ascii">
9
9
9
9
9
9
9
9
9
9
9
9
9
9
9
9
9
9
9
9
9
9
9
9
9
9
9
9
9
9
9
9
9
9
9
9
9
9
9
9
9
9
9
9
9
9
9
9
9
9
9
9
9
9
9
9
9
9
9
9
9
9
9
9
9
9
9
9
9
9
9
9
9
9
9
9
9
9
9
9
9
9
9
9
9
9
9
9
9
9
9
9
9
9
9
9
9
9
9
9
9
9
9
9
9
9
9
9
9
9
9
9
9
9
9
9
9
9
9
9
9
9
9
9
9
9
9
9
9
9
9
9
9
9
9
9
9
9
9
9
9
9
9
9
9
9
9
9
9
9
9
9
9
9
9
9
9
9
9
9
9
9
9
9
9
9
9
9
9
9
9
9
9
9
9
9
9
9
9
9
9
9
9
9
9
9
9
9
9
9
9
9
9
9
9
9
9
9
9
9
9
9
9
9
9
9
9
9
9
9
9
9
9
9
9
9
9
9
9
9
9
9
9
9
9
9
9
9
9
9
9
9
9
9
9
9
9
9
9
9
9
9
9
9
9
9
9
9
9
9
9
9
9
9
9
9
9
9
9
9
9
9
9
9
9
9
9
9
9
9
9
9
9
9
9
9
9
9
9
9
9
9
9
9
9
9
9
9
9
9
9
9
9
9
9
9
9
9
9
9
9
9
9
9
9
9
9
9
9
9
9
9
9
9
9
9
9
9
9
9
9
9
9
9
9
9
9
9
9
9
9
9
9
9
9
9
9
9
9
9
9
9
9
9
9
9
9
9
9
9
9
9
9
9
9
9
9
9
9
9
9
9
9
9
9
9
9
9
9
9
9
9
9
9
9
9
9
9
9
9
9
9
9
9
9
9
9
9
9
9
9
9
9
9
9
9
9
9
9
9
</DataArray>
</Cells>
<PointData>
<DataArray Name="Mises" type="Float32" format="ascii">
0.00000e+00
0.00000e+00
0.00000e+00
0.00000e+00
0.00000e+00
0.00000e+00
0.00000e+00
0.00000e+00
0.00000e+00
0.00000e+00
0.00000e+00
0.00000e+00
0.00000e+00
0.00000e+00
0.00000e+00
0.00000e+00
0.00000e+00
0.00000e+00
0.00000e+00
0.00000e+00
0.00000e+00
0.00000e+00
0.00000e+00
0.00000e+00
0.00000e+00
0.00000e+00
0.00000e+00
0.00000e+00
0.00000e+00
0.00000e+00
0.00000e+00
0.00000e+00
0.00000e+00
0.00000e+00
0.00000e+00
0.00000e+00
0.00000e+00
0.00000e+00
0.00000e+00
0.00000e+00
0.00000e+00
0.00000e+00
0.00000e+00
0.00000e+00
0.00000e+00
0.00000e+00
0.00000e+00
0.00000e+00
0.00000e+00
0.00000e+00
0.00000e+00
0.00000e+00
0.00000e+00
0.00000e+00
0.00000e+00
0.00000e+00
0.00000e+00
0.00000e+00
0.00000e+00
0.00000e+00
0.00000e+00
0.00000e+00
0.00000e+00
0.00000e+00
0.00000e+00
0.00000e+00
0.00000e+00
0.00000e+00
0.00000e+00
0.00000e+00
0.00000e+00
0.00000e+00
0.00000e+00
0.00000e+00
0.00000e+00
0.00000e+00
0.00000e+00
0.00000e+00
0.00000e+00
0.00000e+00
0.00000e+00
0.00000e+00
0.00000e+00
0.00000e+00
0.00000e+00
0.00000e+00
0.00000e+00
0.00000e+00
0.00000e+00
0.00000e+00
0.00000e+00
0.00000e+00
0.00000e+00
0.00000e+00
0.00000e+00
0.00000e+00
0.00000e+00
0.00000e+00
0.00000e+00
0.00000e+00
0.00000e+00
0.00000e+00
0.00000e+00
0.00000e+00
0.00000e+00
0.00000e+00
0.00000e+00
0.00000e+00
0.00000e+00
0.00000e+00
0.00000e+00
0.00000e+00
0.00000e+00
0.00000e+00
0.00000e+00
0.00000e+00
0.00000e+00
0.00000e+00
0.00000e+00
0.00000e+00
0.00000e+00
0.00000e+00
0.00000e+00
0.00000e+00
0.00000e+00
0.00000e+00
0.00000e+00
0.00000e+00
0.00000e+00
0.00000e+00
0.00000e+00
0.00000e+00
0.00000e+00
0.00000e+00
0.00000e+00
0.00000e+00
0.00000e+00
0.00000e+00
0.00000e+00
0.00000e+00
0.00000e+00
0.00000e+00
0.00000e+00
0.00000e+00
0.00000e+00
0.00000e+00
0.00000e+00
0.00000e+00
0.00000e+00
0.00000e+00
0.00000e+00
0.00000e+00
0.00000e+00
0.00000e+00
0.00000e+00
0.00000e+00
0.00000e+00
0.00000e+00
0.00000e+00
0.00000e+00
0.00000e+00
0.00000e+00
0.00000e+00
0.00000e+00
0.00000e+00
0.00000e+00
0.00000e+00
0.00000e+00
0.00000e+00
0.00000e+00
0.00000e+00
0.00000e+00
0.00000e+00
0.00000e+00
0.00000e+00
0.00000e+00
0.00000e+00
0.00000e+00
0.00000e+00
0.00000e+00
0.00000e+00
0.00000e+00
0.00000e+00
0.00000e+00
0.00000e+00
0.00000e+00
0.00000e+00
0.00000e+00
0.00000e+00
0.00000e+00
0.00000e+00
0.00000e+00
0.00000e+00
0.00000e+00
0.00000e+00
0.00000e+00
0.00000e+00
0.00000e+00
0.00000e+00
0.00000e+00
0.00000e+00
0.00000e+00
0.00000e+00
0.00000e+00
0.00000e+00
0.00000e+00
0.00000e+00
0.00000e+00
0.00000e+00
0.00000e+00
0.00000e+00
0.00000e+00
0.00000e+00
0.00000e+00
0.00000e+00
0.00000e+00
0.00000e+00
0.00000e+00
0.00000e+00
0.00000e+00
0.00000e+00
0.00000e+00
0.00000e+00
0.00000e+00
0.00000e+00
0.00000e+00
0.00000e+00
0.00000e+00
0.00000e+00
0.00000e+00
0.00000e+00
0.00000e+00
0.00000e+00
0.00000e+00
0.00000e+00
0.00000e+00
0.00000e+00
0.00000e+00
0.00000e+00
0.00000e+00
0.00000e+00
0.00000e+00
0.00000e+00
0.00000e+00
0.00000e+00
0.00000e+00
0.00000e+00
0.00000e+00
0.00000e+00
0.00000e+00
0.00000e+00
0.00000e+00
0.00000e+00
0.00000e+00
0.00000e+00
0.00000e+00
0.00000e+00
0.00000e+00
0.00000e+00
0.00000e+00
0.00000e+00
0.00000e+00
0.00000e+00
0.00000e+00
0.00000e+00
0.00000e+00
0.00000e+00
0.00000e+00
0.00000e+00
0.00000e+00
0.00000e+00
0.00000e+00
0.00000e+00
0.00000e+00
0.00000e+00
0.00000e+00
0.00000e+00
0.00000e+00
0.00000e+00
0.00000e+00
0.00000e+00
0.00000e+00
0.00000e+00
0.00000e+00
0.00000e+00
0.00000e+00
0.00000e+00
0.00000e+00
0.00000e+00
0.00000e+00
0.00000e+00
0.00000e+00
0.00000e+00
0.00000e+00
0.00000e+00
0.00000e+00
0.00000e+00
0.00000e+00
0.00000e+00
0.00000e+00
0.00000e+00
0.00000e+00
0.00000e+00
0.00000e+00
0.00000e+00
0.00000e+00
0.00000e+00
0.00000e+00
0.00000e+00
0.00000e+00
0.00000e+00
0.00000e+00
0.00000e+00
0.00000e+00
0.00000e+00
0.00000e+00
0.00000e+00
0.00000e+00
0.00000e+00
0.00000e+00
0.00000e+00
0.00000e+00
0.00000e+00
0.00000e+00
0.00000e+00
0.00000e+00
0.00000e+00
0.00000e+00
0.00000e+00
0.00000e+00
0.00000e+00
0.00000e+00
0.00000e+00
0.00000e+00
0.00000e+00
0.00000e+00
0.00000e+00
0.00000e+00
0.00000e+00
0.00000e+00
0.00000e+00
0.00000e+00
0.00000e+00
0.00000e+00
0.00000e+00
0.00000e+00
0.00000e+00
0.00000e+00
0.00000e+00
0.00000e+00
0.00000e+00
0.00000e+00
0.00000e+00
0.00000e+00
0.00000e+00
0.00000e+00
0.00000e+00
0.00000e+00
0.00000e+00
0.00000e+00
0.00000e+00
0.00000e+00
0.00000e+00
0.00000e+00
0.00000e+00
0.00000e+00
0.00000e+00
0.00000e+00
0.00000e+00
0.00000e+00
0.00000e+00
0.00000e+00
0.00000e+00
0.00000e+00
0.00000e+00
0.00000e+00
0.00000e+00
0.00000e+00
0.00000e+00
0.00000e+00
0.00000e+00
0.00000e+00
0.00000e+00
0.00000e+00
0.00000e+00
0.00000e+00
0.00000e+00
0.00000e+00
0.00000e+00
0.00000e+00
0.00000e+00
0.00000e+00
0.00000e+00
0.00000e+00
0.00000e+00
0.00000e+00
0.00000e+00
0.00000e+00
0.00000e+00
0.00000e+00
0.00000e+00
0.00000e+00
0.00000e+00
0.00000e+00
0.00000e+00
0.00000e+00
0.00000e+00
0.00000e+00
0.00000e+00
0.00000e+00
0.00000e+00
0.00000e+00
0.00000e+00
0.00000e+00
0.00000e+00
0.00000e+00
0.00000e+00
0.00000e+00
0.00000e+00
0.00000e+00
0.00000e+00
0.00000e+00
0.00000e+00
0.00000e+00
0.00000e+00
0.00000e+00
0.00000e+00
0.00000e+00
0.00000e+00
0.00000e+00
0.00000e+00
0.00000e+00
0.00000e+00
0.00000e+00
0.00000e+00
0.00000e+00
0.00000e+00
0.00000e+00
0.00000e+00
0.00000e+00
0.00000e+00
</DataArray>
<DataArray Name="Disp" type="Float32" NumberOfComponents="3" format="ascii">
0.00000e+00 0.00000e+00 0.00000e+00
0.00000e+00 0.00000e+00 0.00000e+00
0.00000e+00 0.00000e+00 0.00000e+00
0.00000e+00 0.00000e+00 0.00000e+00
0.00000e+00 0.00000e+00 0.00000e+00
0.00000e+00 0.00000e+00 0.00000e+00
0.00000e+00 0.00000e+00 0.00000e+00
0.00000e+00 0.00000e+00 0.00000e+00
0.00000e+00 0.00000e+00 0.00000e+00
0.00000e+00 0.00000e+00 0.00000e+00
0.00000e+00 0.00000e+00 0.00000e+00
0.00000e+00 0.00000e+00 0.00000e+00
0.00000e+00 0.00000e+00 0.00000e+00
0.00000e+00 0.00000e+00 0.00000e+00
0.00000e+00 0.00000e+00 0.00000e+00
0.00000e+00 0.00000e+00 0.00000e+00
0.00000e+00 0.00000e+00 0.00000e+00
0.00000e+00 0.00000e+00 0.00000e+00
0.00000e+00 0.00000e+00 0.00000e+00
0.00000e+00 0.00000e+00 0.00000e+00
0.00000e+00 0.00000e+00 0.00000e+00
0.00000e+00 0.00000e+00 0.00000e+00
1.76478e-17 1.14799e-16 -9.24031e-05
-7.92153e-17 6.97608e-17 -3.47638e-04
6.71305e-18 1.44211e-16 -6.93048e-04
-1.75018e-16 1.02911e-16 -1.05717e-03
1.10214e-16 -8.15310e-17 -1.40050e-03
-8.62559e-17 2.77483e-17 -1.69950e-03
1.64923e-16 -2.73593e-16 -1.94157e-03
1.41698e-17 -3.27038e-17 -2.11791e-03
1.37008e-16 -3.37219e-16 -2.22532e-03
6.06234e-17 -1.78374e-16 -2.26123e-03
2.38480e-16 -3.76282e-16 -2.22473e-03
1.21986e-16 -1.96833e-16 -2.11774e-03
2.84990e-16 -3.78594e-16 -1.94108e-03
2.60040e-16 -2.02183e-16 -1.70018e-03
2.56010e-16 -2.88455e-16 -1.40097e-03
2.67044e-16 -2.62875e-16 -1.05731e-03
1.83590e-16 -2.34881e-16 -6.93405e-04
1.73395e-16 -1.30621e-16 -3.47783e-04
4.82588e-17 -1.63872e-16 -9.21080e-05
0.00000e+00 0.00000e+00 0.00000e+00
0.00000e+00 0.00000e+00 0.00000e+00
-8.96047e-17 8.37120e-17 -3.47523e-04
1.06744e-16 2.63437e-16 -1.25398e-03
-2.84942e-16 1.25743e-16 -2.45840e-03
2.78870e-16 1.26284e-16 -3.74147e-03
-2.46618e-16 1.86886e-18 -4.96267e-03
3.59692e-16 -2.82049e-16 -6.03541e-03
-1.05433e-16 -1.47876e-16 -6.90681e-03
3.65039e-16 -5.62731e-16 -7.54587e-03
1.57758e-16 -3.04974e-16 -7.93456e-03
5.12186e-16 -8.08260e-16 -8.06412e-03
3.95885e-16 -3.89691e-16 -7.93453e-03
7.23168e-16 -7.85141e-16 -7.54579e-03
5.21343e-16 -4.96563e-16 -6.90711e-03
6.14973e-16 -6.58653e-16 -6.03604e-03
6.32044e-16 -5.27402e-16 -4.96348e-03
5.04764e-16 -4.77389e-16 -3.74223e-03
4.74829e-16 -4.79729e-16 -2.45797e-03
3.25150e-16 -3.13736e-16 -1.25439e-03
2.42714e-16 -2.06716e-16 -3.48030e-04
0.00000e+00 0.00000e+00 0.00000e+00
0.00000e+00 0.00000e+00 0.00000e+00
8.71136e-17 1.95094e-16 -6.93195e-04
-2.18218e-16 1.67826e-16 -2.45803e-03
4.24308e-16 2.70310e-16 -4.77553e-03
-3.81181e-16 -5.50551e-17 -7.26328e-03
5.69690e-16 -5.21137e-17 -9.64972e-03
-2.21823e-16 -2.27114e-16 -1.17617e-02
7.70101e-16 -6.43479e-16 -1.34853e-02
1.93217e-16 -4.48205e-16 -1.47545e-02
8.69091e-16 -1.01499e-15 -1.55287e-02
4.91771e-16 -6.18375e-16 -1.57896e-02
9.95534e-16 -1.26965e-15 -1.55278e-02
7.74042e-16 -7.19396e-16 -1.47540e-02
1.02604e-15 -1.06884e-15 -1.34848e-02
8.80889e-16 -8.50337e-16 -1.17617e-02
8.56368e-16 -8.30748e-16 -9.65078e-03
7.72478e-16 -7.57929e-16 -7.26328e-03
5.30935e-16 -5.24700e-16 -4.77635e-03
4.46514e-16 -5.26092e-16 -2.45818e-03
2.11033e-16 -1.90791e-16 -6.93551e-04
0.00000e+00 0.00000e+00 0.00000e+00
0.00000e+00 0.00000e+00 0.00000e+00
-8.30053e-17 1.78772e-16 -1.05723e-03
3.64041e-16 2.49059e-16 -3.74147e-03
-3.40130e-16 9.14949e-17 -7.26346e-03
8.35260e-16 1.49948e-16 -1.10538e-02
-2.45125e-16 -2.81300e-16 -1.47120e-02
1.13509e-15 -4.07458e-16 -1.79654e-02
6.06345e-17 -6.77130e-16 -2.06346e-02
1.29471e-15 -1.06750e-15 -2.26063e-02
5.83064e-16 -7.86787e-16 -2.38136e-02
1.40256e-15 -1.53140e-15 -2.42194e-02
9.35877e-16 -1.02391e-15 -2.38126e-02
1.31688e-15 -1.52383e-15 -2.26069e-02
1.12206e-15 -1.12251e-15 -2.06354e-02
1.25039e-15 -1.20371e-15 -1.79665e-02
1.04570e-15 -1.03686e-15 -1.47130e-02
8.22316e-16 -8.24551e-16 -1.10541e-02
7.62522e-16 -7.99039e-16 -7.26360e-03
3.93748e-16 -4.30101e-16 -3.74236e-03
2.23297e-16 -3.36049e-16 -1.05717e-03
0.00000e+00 0.00000e+00 0.00000e+00
0.00000e+00 0.00000e+00 0.00000e+00
2.47038e-16 2.28767e-16 -1.40115e-03
-2.40055e-16 1.43151e-16 -4.96379e-03
7.68854e-16 2.44174e-16 -9.65045e-03
-2.32177e-16 -2.08666e-16 -1.47126e-02
1.30594e-15 -1.44514e-16 -1.96188e-02
9.54003e-17 -8.08867e-16 -2.39994e-02
1.71292e-15 -8.04895e-16 -2.76056e-02
4.43503e-16 -1.12853e-15 -3.02771e-02
1.81651e-15 -1.40055e-15 -3.19152e-02
1.00072e-15 -1.29878e-15 -3.24651e-02
1.69794e-15 -1.66337e-15 -3.19129e-02
1.38497e-15 -1.41401e-15 -3.02762e-02
1.51396e-15 -1.49949e-15 -2.76060e-02
1.33625e-15 -1.37625e-15 -2.39998e-02
1.17590e-15 -1.08185e-15 -1.96197e-02
1.08083e-15 -1.15510e-15 -1.47135e-02
6.91368e-16 -6.85967e-16 -9.65065e-03
6.54905e-16 -7.11942e-16 -4.96383e-03
2.73226e-16 -1.85569e-16 -1.40064e-03
0.00000e+00 0.00000e+00 0.00000e+00
0.00000e+00 0.00000e+00 0.00000e+00
-1.07568e-16 9.55345e-17 -1.69995e-03
7.11273e-16 3.35448e-16 -6.03632e-03
-1.80561e-16 -1.70945e-16 -1.17615e-02
1.31961e-15 7.26208e-17 -1.79679e-02
8.21176e-17 -8.18321e-16 -2.40006e-02
1.90586e-15 -5.01728e-16 -2.94026e-02
3.33429e-16 -1.30565e-15 -3.38620e-02
2.24630e-15 -1.19690e-15 -3.71693e-02
9.88599e-16 -1.64934e-15 -3.92018e-02
2.17984e-15 -1.52755e-15 -3.98859e-02
1.50485e-15 -1.78333e-15 -3.92011e-02
1.90312e-15 -1.54054e-15 -3.71705e-02
1.73387e-15 -1.69672e-15 -3.38622e-02
1.55025e-15 -1.26329e-15 -2.94023e-02
1.44965e-15 -1.49695e-15 -2.40000e-02
1.05646e-15 -9.18124e-16 -1.79670e-02
1.00375e-15 -1.08897e-15 -1.17621e-02
5.65901e-16 -5.15968e-16 -6.03688e-03
3.67171e-16 -2.90983e-16 -1.70015e-03
0.00000e+00 0.00000e+00 0.00000e+00
0.00000e+00 0.00000e+00 0.00000e+00
4.17883e-16 2.35715e-16 -1.94143e-03
-8.15198e-17 -1.21388e-16 -6.90741e-03
1.26545e-15 2.68092e-16 -1.34851e-02
1.03789e-16 -6.79921e-16 -2.06350e-02
1.95379e-15 -2.59114e-16 -2.76064e-02
2.86528e-16 -1.31913e-15 -3.38615e-02
2.54561e-15 -8.62006e-16 -3.90351e-02
7.94082e-16 -1.90504e-15 -4.28789e-02
2.58986e-15 -1.42649e-15 -4.52413e-02
1.46557e-15 -2.12241e-15 -4.60367e-02
2.28022e-15 -1.44752e-15 -4.52406e-02
1.70532e-15 -2.13416e-15 -4.28784e-02
1.80058e-15 -1.29838e-15 -3.90347e-02
1.71784e-15 -1.77113e-15 -3.38609e-02
1.37423e-15 -1.15229e-15 -2.76065e-02
1.29666e-15 -1.30740e-15 -2.06363e-02
8.18720e-16 -7.81330e-16 -1.34859e-02
6.94372e-16 -6.52033e-16 -6.90836e-03
2.18484e-16 -1.30187e-16 -1.94258e-03
0.00000e+00 0.00000e+00 0.00000e+00
0.00000e+00 0.00000e+00 0.00000e+00
-7.35788e-17 -3.84156e-17 -2.11788e-03
9.12415e-16 2.09389e-16 -7.54512e-03
2.58675e-17 -4.88059e-16 -1.47535e-02
1.84113e-15 -6.71618e-17 -2.26069e-02
3.74067e-16 -1.24066e-15 -3.02766e-02
2.65113e-15 -6.44127e-16 -3.71721e-02
6.94529e-16 -1.90227e-15 -4.28798e-02
2.97549e-15 -1.14005e-15 -4.71253e-02
1.30329e-15 -2.47495e-15 -4.97359e-02
2.67733e-15 -1.19324e-15 -5.06160e-02
1.74045e-15 -2.54414e-15 -4.97353e-02
2.19730e-15 -1.17860e-15 -4.71240e-02
1.69146e-15 -2.16758e-15 -4.28786e-02
1.59468e-15 -1.20361e-15 -3.71708e-02
1.50638e-15 -1.67966e-15 -3.02770e-02
9.68870e-16 -8.56225e-16 -2.26077e-02
1.00968e-15 -1.03138e-15 -1.47551e-02
4.14904e-16 -3.54149e-16 -7.54739e-03
2.66012e-16 -2.16859e-16 -2.11838e-03
0.00000e+00 0.00000e+00 0.00000e+00
0.00000e+00 0.00000e+00 0.00000e+00
4.92504e-16 7.62635e-17 -2.22541e-03
8.98126e-21 -2.93010e-16 -7.93478e-03
1.54064e-15 -2.51277e-17 -1.55282e-02
3.43109e-16 -1.05489e-15 -2.38131e-02
2.45017e-15 -4.14305e-16 -3.19121e-02
6.29478e-16 -1.84855e-15 -3.92013e-02
3.06394e-15 -9.27826e-16 -4.52411e-02
1.18637e-15 -2.56443e-15 -4.97363e-02
3.17029e-15 -1.09181e-15 -5.25005e-02
1.73088e-15 -2.77518e-15 -5.34329e-02
2.59715e-15 -1.03991e-15 -5.25003e-02
1.73092e-15 -2.41957e-15 -4.97355e-02
1.98908e-15 -1.08325e-15 -4.52407e-02
1.51874e-15 -2.00919e-15 -3.92011e-02
1.06272e-15 -9.79223e-16 -3.19140e-02
1.20379e-15 -1.42740e-15 -2.38137e-02
5.08019e-16 -4.25561e-16 -1.55294e-02
5.04477e-16 -5.08195e-16 -7.93444e-03
1.23625e-16 -7.26248e-17 -2.22504e-03
0.00000e+00 0.00000e+00 0.00000e+00
0.00000e+00 0.00000e+00 0.00000e+00
3.45247e-18 -1.66326e-16 -2.26102e-03
1.06475e-15 1.40838e-17 -8.06509e-03
2.19200e-16 -7.56232e-16 -1.57885e-02
2.03353e-15 -4.21570e-16 -2.42191e-02
5.48645e-16 -1.55621e-15 -3.24654e-02
2.83983e-15 -7.93917e-16 -3.98866e-02
1.00248e-15 -2.39838e-15 -4.60375e-02
3.16412e-15 -1.09092e-15 -5.06164e-02
1.51442e-15 -2.81378e-15 -5.34331e-02
2.90925e-15 -9.37516e-16 -5.43829e-02
1.65291e-15 -2.58421e-15 -5.34327e-02
2.35106e-15 -8.47043e-16 -5.06159e-02
1.48807e-15 -2.21900e-15 -4.60370e-02
1.42283e-15 -8.40031e-16 -3.98866e-02
1.29144e-15 -1.62790e-15 -3.24654e-02
5.27710e-16 -5.69293e-16 -2.42188e-02
7.36273e-16 -9.29843e-16 -1.57895e-02
1.95159e-16 -7.33196e-17 -8.06456e-03
1.72948e-16 -1.97078e-16 -2.26065e-03
0.00000e+00 0.00000e+00 0.00000e+00
0.00000e+00 0.00000e+00 0.00000e+00
5.06534e-16 -1.18933e-17 -2.22488e-03
1.12578e-16 -5.18094e-16 -7.93346e-03
1.60071e-15 -2.76832e-16 -1.55284e-02
4.75976e-16 -1.32192e-15 -2.38137e-02
2.39360e-15 -6.76906e-16 -3.19138e-02
7.59302e-16 -2.17941e-15 -3.92028e-02
2.96751e-15 -1.02923e-15 -4.52414e-02
1.22132e-15 -2.77543e-15 -4.97364e-02
2.95761e-15 -8.90779e-16 -5.25010e-02
1.35565e-15 -2.68343e-15 -5.34334e-02
2.47595e-15 -7.66185e-16 -5.25005e-02
1.34018e-15 -2.33145e-15 -4.97357e-02
1.81326e-15 -5.98403e-16 -4.52407e-02
1.22194e-15 -1.84542e-15 -3.92011e-02
8.06568e-16 -4.58995e-16 -3.19153e-02
9.34920e-16 -1.17814e-15 -2.38139e-02
2.61535e-16 -2.61885e-16 -1.55284e-02
3.45884e-16 -4.10482e-16 -7.93449e-03
1.14406e-16 6.94854e-18 -2.22506e-03
0.00000e+00 0.00000e+00 0.00000e+00
0.00000e+00 0.00000e+00 0.00000e+00
7.45093e-17 -2.25002e-16 -2.11849e-03
1.01722e-15 -2.27390e-16 -7.54630e-03
3.26172e-16 -9.94245e-16 -1.47550e-02
1.88658e-15 -5.77144e-16 -2.26088e-02
6.86647e-16 -1.83318e-15 -3.02776e-02
2.47862e-15 -8.47256e-16 -3.71708e-02
8.39960e-16 -2.64938e-15 -4.28796e-02
2.66435e-15 -8.92801e-16 -4.71260e-02
1.11926e-15 -2.69851e-15 -4.97364e-02
2.55102e-15 -7.08879e-16 -5.06166e-02
1.03265e-15 -2.35940e-15 -4.97358e-02
1.90388e-15 -6.02450e-16 -4.71248e-02
1.05157e-15 -1.88033e-15 -4.28784e-02
1.07581e-15 -3.65446e-16 -3.71710e-02
8.62442e-16 -1.24538e-15 -3.02757e-02
3.78458e-16 -3.13898e-16 -2.26070e-02
4.73084e-16 -5.78005e-16 -1.47539e-02
1.69881e-16 -9.79551e-17 -7.54563e-03
8.60844e-17 -4.54792e-17 -2.11755e-03
0.00000e+00 0.00000e+00 0.00000e+00
0.00000e+00 0.00000e+00 0.00000e+00
4.48837e-16 -1.83246e-16 -1.94138e-03
1.69692e-16 -6.10000e-16 -6.90753e-03
1.24928e-15 -3.74196e-16 -1.34853e-02
3.72662e-16 -1.46713e-15 -2.06371e-02
1.82438e-15 -7.82558e-16 -2.76074e-02
6.09873e-16 -2.14349e-15 -3.38634e-02
2.25592e-15 -9.30954e-16 -3.90364e-02
8.29906e-16 -2.53216e-15 -4.28802e-02
2.28815e-15 -7.69747e-16 -4.52412e-02
8.31105e-16 -2.36657e-15 -4.60374e-02
2.02799e-15 -5.11759e-16 -4.52411e-02
7.33386e-16 -1.93644e-15 -4.28798e-02
1.29126e-15 -4.78899e-16 -3.90351e-02
7.60964e-16 -1.24885e-15 -3.38612e-02
5.92817e-16 -2.68428e-16 -2.76064e-02
5.24604e-16 -6.95086e-16 -2.06336e-02
1.81747e-16 -2.57880e-16 -1.34839e-02
1.83753e-16 -1.22880e-16 -6.90695e-03
8.84843e-17 -5.07318e-17 -1.94153e-03
0.00000e+00 0.00000e+00 0.00000e+00
0.00000e+00 0.00000e+00 0.00000e+00
-1.88128e-17 -3.17630e-16 -1.70000e-03
6.46634e-16 -3.21219e-16 -6.03657e-03
1.73923e-16 -9.13371e-16 -1.17614e-02
1.33641e-15 -5.80973e-16 -1.79677e-02
3.97460e-16 -1.77002e-15 -2.40007e-02
1.71356e-15 -8.25088e-16 -2.94048e-02
5.29213e-16 -2.26161e-15 -3.38621e-02
1.86827e-15 -7.65144e-16 -3.71719e-02
6.84193e-16 -2.21397e-15 -3.92012e-02
1.84392e-15 -5.20469e-16 -3.98867e-02
4.69124e-16 -1.90395e-15 -3.92022e-02
1.41747e-15 -3.77151e-16 -3.71717e-02
4.48482e-16 -1.47840e-15 -3.38629e-02
7.37561e-16 -1.78490e-16 -2.94027e-02
4.20243e-16 -7.64222e-16 -2.39988e-02
3.11931e-16 -2.26697e-16 -1.79653e-02
1.96293e-16 -1.82938e-16 -1.17603e-02
6.28241e-17 -2.56351e-16 -6.03593e-03
3.02527e-17 1.80080e-17 -1.69968e-03
0.00000e+00 0.00000e+00 0.00000e+00
0.00000e+00 0.00000e+00 0.00000e+00
2.70675e-16 -2.06326e-16 -1.40042e-03
4.95038e-17 -5.42547e-16 -4.96343e-03
8.85213e-16 -5.14771e-16 -9.65094e-03
2.96989e-16 -1.22212e-15 -1.47134e-02
1.31134e-15 -6.75337e-16 -1.96199e-02
3.55553e-16 -1.80264e-15 -2.40005e-02
1.43150e-15 -6.79582e-16 -2.76065e-02
3.68892e-16 -2.04222e-15 -3.02777e-02
1.39390e-15 -4.69738e-16 -3.19140e-02
2.28501e-16 -1.76890e-15 -3.24651e-02
1.27824e-15 -3.21504e-16 -3.19135e-02
1.76877e-16 -1.56867e-15 -3.02773e-02
8.27422e-16 -9.24611e-17 -2.76061e-02
2.63083e-16 -1.02072e-15 -2.40010e-02
4.14107e-16 3.76746e-17 -1.96183e-02
1.20802e-16 -3.38769e-16 -1.47123e-02
6.97541e-17 -8.39242e-17 -9.64867e-03
3.51470e-17 -4.48840e-17 -4.96241e-03
-4.94697e-17 -7.72877e-18 -1.40057e-03
0.00000e+00 0.00000e+00 0.00000e+00
0.00000e+00 0.00000e+00 0.00000e+00
7.96403e-17 -2.77728e-16 -1.05704e-03
5.63230e-16 -2.71386e-16 -3.74072e-03
1.35935e-16 -8.06273e-16 -7.26298e-03
9.34344e-16 -5.35435e-16 -1.10546e-02
2.78139e-16 -1.31054e-15 -1.47127e-02
1.10263e-15 -6.09882e-16 -1.79664e-02
2.71242e-16 -1.65858e-15 -2.06354e-02
1.14497e-15 -4.40490e-16 -2.26076e-02
1.18185e-16 -1.56001e-15 -2.38133e-02
9.52997e-16 -2.33366e-16 -2.42191e-02
6.50649e-19 -1.47546e-15 -2.38131e-02
7.83268e-16 1.48706e-17 -2.26074e-02
1.71556e-17 -1.13873e-15 -2.06365e-02
3.91266e-16 7.38523e-17 -1.79664e-02
-9.89021e-18 -5.60415e-16 -1.47122e-02
2.49873e-16 1.86844e-16 -1.10526e-02
-5.25652e-17 -1.08472e-16 -7.26290e-03
-1.17366e-16 8.53041e-17 -3.74133e-03
-5.59121e-17 3.60112e-17 -1.05680e-03
0.00000e+00 0.00000e+00 0.00000e+00
0.00000e+00 0.00000e+00 0.00000e+00
1.96579e-16 -2.25892e-16 -6.93532e-04
1.28250e-16 -4.07395e-16 -2.45806e-03
6.82975e-16 -3.68332e-16 -4.77582e-03
2.18121e-16 -8.80192e-16 -7.26306e-03
7.56944e-16 -3.99260e-16 -9.64988e-03
8.46444e-17 -1.19136e-15 -1.17603e-02
7.30403e-16 -4.83975e-16 -1.34842e-02
3.25821e-17 -1.22020e-15 -1.47535e-02
7.24926e-16 -1.09953e-16 -1.55298e-02
-6.05070e-17 -1.13398e-15 -1.57906e-02
5.22977e-16 -1.01562e-16 -1.55288e-02
-1.44626e-16 -9.50494e-16 -1.47565e-02
3.37564e-16 1.01151e-16 -1.34850e-02
-1.80483e-16 -6.35364e-16 -1.17607e-02
1.22811e-16 1.78836e-16 -9.64921e-03
-2.66879e-16 -2.55063e-16 -7.26225e-03
-1.40268e-18 2.41822e-16 -4.77529e-03
-8.87308e-17 6.27979e-18 -2.45810e-03
-9.35879e-17 7.49238e-17 -6.92574e-04
0.00000e+00 0.00000e+00 0.00000e+00
0.00000e+00 0.00000e+00 0.00000e+00
5.15872e-17 -1.74153e-16 -3.47840e-04
3.60341e-16 -2.83601e-16 -1.25434e-03
1.80826e-16 -4.05424e-16 -2.45770e-03
4.64523e-16 -3.09165e-16 -3.74158e-03
9.92467e-17 -6.99151e-16 -4.96291e-03
4.69967e-16 -2.90056e-16 -6.03612e-03
-1.41869e-17 -8.65124e-16 -6.90656e-03
3.67282e-16 -1.48806e-16 -7.54584e-03
-1.01784e-16 -7.14019e-16 -7.93380e-03
4.11672e-16 -4.07299e-17 -8.06542e-03
-1.64816e-16 -6.64239e-16 -7.93469e-03
1.55178e-16 2.35130e-17 -7.54720e-03
-1.83828e-16 -4.92000e-16 -6.90772e-03
7.78282e-17 1.62408e-16 -6.03640e-03
-3.20689e-16 -2.74507e-16 -4.96327e-03
-8.88202e-17 2.44180e-16 -3.74178e-03
-2.60097e-16 -1.28959e-16 -2.45796e-03
-1.18772e-16 2.13888e-16 -1.25425e-03
-6.60869e-17 -3.32613e-17 -3.47652e-04
0.00000e+00 0.00000e+00 0.00000e+00
0.00000e+00 0.00000e+00 0.00000e+00
1.24597e-16 -1.27682e-16 -9.19483e-05
-3.58872e-17 -1.64503e-16 -3.47648e-04
1.58945e-16 -1.52283e-16 -6.93157e-04
8.86401e-17 -2.47883e-16 -1.05738e-03
2.18840e-16 -1.73524e-16 -1.40068e-03
-1.84315e-17 -3.78885e-16 -1.69977e-03
1.46769e-16 -7.86851e-17 -1.94135e-03
-8.73881e-17 -3.66391e-16 -2.11795e-03
1.49237e-16 -8.23096e-17 -2.22453e-03
-1.89170e-16 -3.12386e-16 -2.26135e-03
8.62520e-17 1.89618e-17 -2.22521e-03
-1.58711e-16 -3.33995e-16 -2.11803e-03
-1.51883e-18 1.47213e-16 -1.94145e-03
-1.70595e-16 -2.37683e-16 -1.69968e-03
-6.73305e-17 2.14657e-16 -1.40023e-03
-1.90357e-16 -1.12817e-16 -1.05703e-03
-5.28048e-17 1.41057e-16 -6.93057e-04
-1.01193e-16 -2.77818e-17 -3.47798e-04
-5.29182e-17 4.44275e-17 -9.20843e-05
0.00000e+00 0.00000e+00 0.00000e+00
0.00000e+00 0.00000e+00 0.00000e+00
0.00000e+00 0.00000e+00 0.00000e+00
0.00000e+00 0.00000e+00 0.00000e+00
0.00000e+00 0.00000e+00 0.00000e+00
0.00000e+00 0.00000e+00 0.00000e+00
0.00000e+00 0.00000e+00 0.00000e+00
0.00000e+00 0.00000e+00 0.00000e+00
0.00000e+00 0.00000e+00 0.00000e+00
0.00000e+00 0.00000e+00 0.00000e+00
0.00000e+00 0.00000e+00 0.00000e+00
0.00000e+00 0.00000e+00 0.00000e+00
0.00000e+00 0.00000e+00 0.00000e+00
0.00000e+00 0.00000e+00 0.00000e+00
0.00000e+00 0.00000e+00 0.00000e+00
0.00000e+00 0.00000e+00 0.00000e+00
0.00000e+00 0.00000e+00 0.00000e+00
0.00000e+00 0.00000e+00 0.00000e+00
0.00000e+00 0.00000e+00 0.00000e+00
0.00000e+00 0.00000e+00 0.00000e+00
0.00000e+00 0.00000e+00 0.00000e+00
0.00000e+00 0.00000e+00 0.00000e+00
</DataArray>
<DataArray Name="angDisp" type="Float32" NumberOfComponents="3" format="ascii">
0.00000e+00 0.00000e+00 0.00000e+00
0.00000e+00 0.00000e+00 0.00000e+00
0.00000e+00 0.00000e+00 0.00000e+00
0.00000e+00 0.00000e+00 0.00000e+00
0.00000e+00 0.00000e+00 0.00000e+00
0.00000e+00 0.00000e+00 0.00000e+00
0.00000e+00 0.00000e+00 0.00000e+00
0.00000e+00 0.00000e+00 0.00000e+00
0.00000e+00 0.00000e+00 0.00000e+00
0.00000e+00 0.00000e+00 0.00000e+00
0.00000e+00 0.00000e+00 0.00000e+00
0.00000e+00 0.00000e+00 0.00000e+00
0.00000e+00 0.00000e+00 0.00000e+00
0.00000e+00 0.00000e+00 0.00000e+00
0.00000e+00 0.00000e+00 0.00000e+00
0.00000e+00 0.00000e+00 0.00000e+00
0.00000e+00 0.00000e+00 0.00000e+00
0.00000e+00 0.00000e+00 0.00000e+00
0.00000e+00 0.00000e+00 0.00000e+00
0.00000e+00 0.00000e+00 0.00000e+00
0.00000e+00 0.00000e+00 0.00000e+00
0.00000e+00 0.00000e+00 0.00000e+00
3.84396e-03 -3.84744e-03 -1.95373e-14
1.37752e-02 -6.71301e-03 -1.73507e-14
2.74614e-02 -7.61102e-03 -2.51437e-14
4.17496e-02 -7.49182e-03 -7.62698e-14
5.53843e-02 -6.76815e-03 2.93041e-14
6.71819e-02 -5.66772e-03 -8.69706e-14
7.67989e-02 -4.37528e-03 -7.85993e-14
8.37606e-02 -2.95625e-03 1.25487e-13
8.80325e-02 -1.49861e-03 -1.13876e-13
8.94350e-02 -6.17804e-06 1.88885e-14
8.80343e-02 1.49321e-03 5.82895e-14
8.37494e-02 2.96129e-03 6.76669e-14
7.67952e-02 4.36133e-03 -1.30922e-13
6.71998e-02 5.66201e-03 -1.06939e-13
5.53970e-02 6.77240e-03 -2.05861e-14
4.17614e-02 7.49109e-03 -8.02679e-14
2.74652e-02 7.61291e-03 1.22220e-14
1.37837e-02 6.71296e-03 1.52581e-13
3.85122e-03 3.85361e-03 -4.47557e-16
0.00000e+00 0.00000e+00 0.00000e+00
0.00000e+00 0.00000e+00 0.00000e+00
6.71895e-03 -1.37794e-02 3.99990e-14
2.22592e-02 -2.22584e-02 -1.47435e-13
4.30464e-02 -2.56388e-02 -1.58294e-13
6.51204e-02 -2.55062e-02 -2.75278e-13
8.66753e-02 -2.32145e-02 4.49070e-14
1.05546e-01 -1.95930e-02 -2.36023e-13
1.21171e-01 -1.51811e-02 -3.71469e-14
1.32520e-01 -1.03159e-02 -1.43354e-13
1.39582e-01 -5.21008e-03 -2.28168e-13
1.41863e-01 -9.20062e-07 9.72310e-14
1.39576e-01 5.21942e-03 2.06907e-13
1.32525e-01 1.03141e-02 -4.15736e-14
1.21176e-01 1.51634e-02 7.18891e-15
1.05557e-01 1.95849e-02 -7.34052e-14
8.66942e-02 2.32098e-02 -1.39096e-13
6.51435e-02 2.55042e-02 -6.67512e-14
4.30555e-02 2.56495e-02 -3.23958e-14
2.22579e-02 2.22640e-02 -2.32494e-13
6.70829e-03 1.37844e-02 -1.91011e-13
0.00000e+00 0.00000e+00 0.00000e+00
0.00000e+00 0.00000e+00 0.00000e+00
7.60597e-03 -2.74657e-02 3.52272e-15
2.56423e-02 -4.30481e-02 2.22620e-13
4.97235e-02 -4.97092e-02 -1.90103e-13
7.52882e-02 -4.98835e-02 -1.74432e-13
1.00512e-01 -4.57456e-02 5.82303e-14
1.22850e-01 -3.88532e-02 -2.11132e-13
1.41464e-01 -3.02502e-02 -7.98418e-14
1.55116e-01 -2.06280e-02 -1.85828e-14
1.63603e-01 -1.04401e-02 1.62996e-13
1.66373e-01 3.08021e-06 -1.85676e-13
1.63610e-01 1.04378e-02 -2.37728e-13
1.55121e-01 2.06180e-02 -9.80484e-14
1.41459e-01 3.02285e-02 -1.23305e-14
1.22843e-01 3.88427e-02 6.04164e-14
1.00516e-01 4.57455e-02 3.33108e-14
7.52853e-02 4.98902e-02 -5.21850e-14
4.97125e-02 4.97188e-02 1.35183e-13
2.56392e-02 4.30528e-02 -1.08411e-13
7.60752e-03 2.74615e-02 -8.88133e-14
0.00000e+00 0.00000e+00 0.00000e+00
0.00000e+00 0.00000e+00 0.00000e+00
7.48673e-03 -4.17628e-02 1.44117e-13
2.55047e-02 -6.51396e-02 -4.91353e-14
4.99051e-02 -7.52804e-02 1.43735e-14
7.60031e-02 -7.59880e-02 -1.30513e-13
1.01830e-01 -7.00991e-02 -6.93800e-14
1.24892e-01 -5.98360e-02 -9.79112e-14
1.44200e-01 -4.67717e-02 -7.18947e-14
1.58439e-01 -3.19850e-02 1.74830e-13
1.67326e-01 -1.62046e-02 5.13168e-14
1.70230e-01 1.60113e-06 3.61060e-15
1.67328e-01 1.62044e-02 -5.01331e-13
1.58438e-01 3.19835e-02 -2.00891e-13
1.44197e-01 4.67629e-02 -5.17002e-14
1.24877e-01 5.98272e-02 -1.83804e-13
1.01815e-01 7.00975e-02 1.45526e-15
7.59888e-02 7.59752e-02 -8.99776e-14
4.98980e-02 7.52855e-02 -9.93734e-14
2.55096e-02 6.51401e-02 -9.26324e-14
7.48805e-03 4.17637e-02 -6.16950e-14
0.00000e+00 0.00000e+00 0.00000e+00
0.00000e+00 0.00000e+00 0.00000e+00
6.76362e-03 -5.53902e-02 -1.45994e-13
2.32033e-02 -8.67032e-02 -1.54359e-14
4.57428e-02 -1.00509e-01 6.74509e-14
7.01003e-02 -1.01813e-01 3.81519e-14
9.43386e-02 -9.43402e-02 -1.73495e-13
1.16071e-01 -8.08290e-02 1.28686e-13
1.34350e-01 -6.33702e-02 -1.38096e-13
1.47878e-01 -4.34245e-02 1.95296e-13
1.56329e-01 -2.20507e-02 -2.03864e-13
1.59109e-01 -5.35328e-06 -2.50673e-13
1.56327e-01 2.20436e-02 -2.55144e-14
1.47882e-01 4.34302e-02 -6.74701e-15
1.34342e-01 6.33696e-02 -2.72930e-14
1.16062e-01 8.08190e-02 -9.82765e-14
9.43325e-02 9.43209e-02 -8.23918e-14
7.01098e-02 1.01805e-01 -1.20696e-13
4.57593e-02 1.00517e-01 -4.24274e-14
2.32263e-02 8.67036e-02 1.24175e-13
6.76493e-03 5.54032e-02 -1.49880e-13
0.00000e+00 0.00000e+00 0.00000e+00
0.00000e+00 0.00000e+00 0.00000e+00
5.67085e-03 -6.71869e-02 -1.91214e-13
1.95996e-02 -1.05567e-01 1.08924e-14
3.88427e-02 -1.22854e-01 -8.34258e-14
5.98289e-02 -1.24875e-01 -7.90294e-15
8.08195e-02 -1.16066e-01 -1.71529e-13
9.97405e-02 -9.97489e-02 -9.66193e-14
1.15700e-01 -7.84012e-02 -1.34607e-13
1.27544e-01 -5.38117e-02 -3.19774e-14
1.34946e-01 -2.73445e-02 -5.62193e-14
1.37379e-01 -6.77196e-07 -9.29517e-14
1.34945e-01 2.73388e-02 -9.43051e-14
1.27535e-01 5.38149e-02 -1.90437e-14
1.15691e-01 7.83884e-02 2.03790e-13
9.97487e-02 9.97459e-02 -4.26040e-14
8.08441e-02 1.16053e-01 2.80385e-14
5.98422e-02 1.24860e-01 -4.07771e-14
3.88520e-02 1.22846e-01 -1.24199e-13
1.95995e-02 1.05583e-01 3.95855e-14
5.66665e-03 6.72087e-02 -1.06123e-13
0.00000e+00 0.00000e+00 0.00000e+00
0.00000e+00 0.00000e+00 0.00000e+00
4.37168e-03 -7.68059e-02 -9.09084e-14
1.51721e-02 -1.21178e-01 1.26822e-13
3.02468e-02 -1.41459e-01 -3.33950e-14
4.67731e-02 -1.44189e-01 1.16490e-13
6.33675e-02 -1.34343e-01 3.45612e-13
7.83902e-02 -1.15699e-01 -1.39451e-13
9.10735e-02 -9.10897e-02 -9.33208e-14
1.00517e-01 -6.26022e-02 -3.39263e-15
1.06425e-01 -3.18234e-02 6.40570e-14
1.08372e-01 -5.51962e-06 -9.30772e-14
1.06423e-01 3.18320e-02 -8.23622e-14
1.00518e-01 6.25994e-02 -1.51703e-13
9.10797e-02 9.10727e-02 -2.68691e-13
7.84001e-02 1.15685e-01 2.51949e-14
6.33811e-02 1.34337e-01 1.75225e-13
4.67645e-02 1.44191e-01 -6.69886e-14
3.02408e-02 1.41453e-01 1.19182e-13
1.51726e-02 1.21184e-01 1.88748e-13
4.36788e-03 7.68138e-02 -1.26450e-13
0.00000e+00 0.00000e+00 0.00000e+00
0.00000e+00 0.00000e+00 0.00000e+00
2.95422e-03 -8.37577e-02 -1.32502e-13
1.03100e-02 -1.32527e-01 7.14877e-14
2.06156e-02 -1.55115e-01 -8.96909e-14
3.19851e-02 -1.58440e-01 7.60591e-15
4.34395e-02 -1.47878e-01 -2.12742e-13
5.38271e-02 -1.27546e-01 -6.16945e-14
6.25951e-02 -1.00520e-01 2.76104e-15
6.91431e-02 -6.91526e-02 -7.19107e-15
7.32395e-02 -3.51724e-02 -7.92625e-15
7.45987e-02 4.79647e-06 1.10592e-13
7.32429e-02 3.51823e-02 -5.87895e-14
6.91537e-02 6.91462e-02 -1.03885e-13
6.26030e-02 1.00517e-01 1.56570e-13
5.38164e-02 1.27534e-01 4.07314e-15
4.34356e-02 1.47872e-01 -1.25057e-13
3.19848e-02 1.58436e-01 1.48614e-13
2.06142e-02 1.55110e-01 6.69143e-14
1.03047e-02 1.32536e-01 2.15671e-13
2.96220e-03 8.37637e-02 -9.36330e-14
0.00000e+00 0.00000e+00 0.00000e+00
0.00000e+00 0.00000e+00 0.00000e+00
1.47713e-03 -8.80280e-02 2.22497e-13
5.20425e-03 -1.39588e-01 -1.23759e-13
1.04353e-02 -1.63621e-01 -7.24931e-14
1.62136e-02 -1.67328e-01 3.67199e-14
2.20518e-02 -1.56331e-01 -7.05072e-14
2.73420e-02 -1.34941e-01 -1.35101e-13
3.18301e-02 -1.06426e-01 -1.94116e-13
3.51836e-02 -7.32502e-02 2.00385e-13
3.72712e-02 -3.72788e-02 -3.59382e-13
3.79533e-02 5.12656e-06 -1.56379e-13
3.72725e-02 3.72728e-02 1.20083e-13
3.51768e-02 7.32422e-02 1.06797e-13
3.18359e-02 1.06427e-01 4.56106e-14
2.73357e-02 1.34937e-01 4.02313e-14
2.20429e-02 1.56324e-01 -2.09503e-13
1.62022e-02 1.67320e-01 6.14139e-14
1.04335e-02 1.63611e-01 7.25866e-14
5.20538e-03 1.39582e-01 -2.12896e-13
1.49317e-03 8.80411e-02 -5.99447e-14
0.00000e+00 0.00000e+00 0.00000e+00
0.00000e+00 0.00000e+00 0.00000e+00
8.16512e-06 -8.94286e-02 1.05458e-14
1.91032e-06 -1.41862e-01 -9.29485e-14
8.96284e-07 -1.66385e-01 6.46905e-14
5.02323e-06 -1.70235e-01 -7.86170e-14
3.37948e-06 -1.59106e-01 6.56504e-14
-9.14860e-06 -1.37378e-01 -2.65004e-13
-4.27797e-06 -1.08366e-01 -5.32017e-14
8.71294e-06 -7.46014e-02 -2.11403e-13
1.26099e-06 -3.79623e-02 -2.05761e-13
-2.77393e-06 7.59661e-06 4.60232e-14
-1.75535e-06 3.79617e-02 -3.33534e-13
1.57761e-06 7.46015e-02 -1.36142e-14
-2.53001e-06 1.08367e-01 -6.65269e-14
-7.80295e-06 1.37382e-01 5.47030e-14
-7.11439e-06 1.59103e-01 -1.57956e-13
-1.05191e-05 1.70224e-01 -1.30267e-13
-1.01626e-05 1.66369e-01 -7.69637e-14
-8.94378e-06 1.41859e-01 1.75960e-13
-8.31887e-06 8.94435e-02 3.24485e-15
0.00000e+00 0.00000e+00 0.00000e+00
0.00000e+00 0.00000e+00 0.00000e+00
-1.48812e-03 -8.80352e-02 2.25806e-14
-5.20408e-03 -1.39577e-01 -2.08340e-13
-1.04296e-02 -1.63613e-01 7.30498e-15
-1.62063e-02 -1.67327e-01 -2.12270e-13
-2.20458e-02 -1.56331e-01 1.11565e-13
-2.73303e-02 -1.34947e-01 2.01014e-13
-3.18201e-02 -1.06428e-01 -2.52372e-13
-3.51718e-02 -7.32404e-02 -1.15618e-13
-3.72646e-02 -3.72610e-02 -5.55412e-14
-3.79632e-02 2.05876e-06 8.49873e-15
-3.72670e-02 3.72794e-02 -4.27553e-14
-3.51685e-02 7.32447e-02 1.45311e-13
-3.18272e-02 1.06434e-01 3.60307e-14
-2.73374e-02 1.34943e-01 -4.00739e-14
-2.20387e-02 1.56328e-01 1.35404e-13
-1.62136e-02 1.67321e-01 -5.41523e-14
-1.04433e-02 1.63605e-01 -1.56855e-13
-5.22189e-03 1.39586e-01 -3.47598e-13
-1.49099e-03 8.80281e-02 -4.05279e-14
0.00000e+00 0.00000e+00 0.00000e+00
0.00000e+00 0.00000e+00 0.00000e+00
-2.96143e-03 -8.37675e-02 -1.49392e-13
-1.03105e-02 -1.32533e-01 -2.94808e-14
-2.06191e-02 -1.55118e-01 -2.12342e-13
-3.19805e-02 -1.58446e-01 3.01797e-14
-4.34241e-02 -1.47881e-01 1.92470e-13
-5.38060e-02 -1.27541e-01 1.72022e-13
-6.26000e-02 -1.00518e-01 -1.15158e-14
-6.91449e-02 -6.91431e-02 -2.89782e-13
-7.32451e-02 -3.51735e-02 -1.84811e-13
-7.45941e-02 1.50636e-05 -4.16627e-14
-7.32437e-02 3.51752e-02 -4.57383e-14
-6.91425e-02 6.91461e-02 1.88033e-14
-6.25912e-02 1.00520e-01 -2.05780e-13
-5.38025e-02 1.27546e-01 -2.31812e-13
-4.34289e-02 1.47881e-01 -2.74074e-14
-3.19846e-02 1.58442e-01 9.44246e-14
-2.06213e-02 1.55110e-01 -6.41801e-15
-1.03088e-02 1.32539e-01 -2.93673e-13
-2.95431e-03 8.37531e-02 -5.96074e-14
0.00000e+00 0.00000e+00 0.00000e+00
0.00000e+00 0.00000e+00 0.00000e+00
-4.36685e-03 -7.68015e-02 7.42439e-14
-1.51771e-02 -1.21190e-01 6.17795e-14
-3.02381e-02 -1.41467e-01 -2.99140e-13
-4.67648e-02 -1.44202e-01 -1.14299e-14
-6.33639e-02 -1.34350e-01 -1.11931e-13
-7.83966e-02 -1.15691e-01 -1.78129e-13
-9.10743e-02 -9.10720e-02 3.72361e-14
-1.00521e-01 -6.25966e-02 -3.78845e-14
-1.06423e-01 -3.18243e-02 -5.51478e-14
-1.08377e-01 4.37975e-06 -2.31234e-13
-1.06423e-01 3.18338e-02 2.27757e-13
-1.00516e-01 6.25927e-02 -4.51320e-14
-9.10716e-02 9.10806e-02 3.42877e-14
-7.83915e-02 1.15701e-01 4.34181e-14
-6.33729e-02 1.34357e-01 -1.85020e-14
-4.67810e-02 1.44196e-01 -1.13841e-13
-3.02516e-02 1.41462e-01 -1.00915e-13
-1.51718e-02 1.21164e-01 1.07874e-13
-4.36945e-03 7.67964e-02 -2.68681e-13
0.00000e+00 0.00000e+00 0.00000e+00
0.00000e+00 0.00000e+00 0.00000e+00
-5.66539e-03 -6.71987e-02 5.06030e-14
-1.95920e-02 -1.05574e-01 3.33842e-16
-3.88494e-02 -1.22858e-01 -1.37753e-13
-5.98404e-02 -1.24887e-01 9.69725e-15
-8.08379e-02 -1.16072e-01 1.67210e-14
-9.97490e-02 -9.97479e-02 -3.24454e-13
-1.15704e-01 -7.83882e-02 -7.68528e-14
-1.27539e-01 -5.38092e-02 -2.35688e-13
-1.34954e-01 -2.73384e-02 -1.18651e-13
-1.37379e-01 2.55719e-06 -9.59378e-14
-1.34947e-01 2.73387e-02 -5.85465e-14
-1.27534e-01 5.38121e-02 -2.09508e-14
-1.15694e-01 7.83972e-02 -4.29168e-14
-9.97459e-02 9.97622e-02 1.56449e-15
-8.08372e-02 1.16078e-01 -9.80379e-14
-5.98363e-02 1.24886e-01 2.98997e-14
-3.88559e-02 1.22846e-01 -4.38228e-14
-1.95953e-02 1.05556e-01 1.04782e-14
-5.66504e-03 6.71850e-02 -6.17736e-14
0.00000e+00 0.00000e+00 0.00000e+00
0.00000e+00 0.00000e+00 0.00000e+00
-6.76535e-03 -5.53968e-02 -5.30944e-14
-2.32144e-02 -8.66980e-02 3.08210e-14
-4.57501e-02 -1.00517e-01 -1.06375e-13
-7.01162e-02 -1.01823e-01 2.16795e-13
-9.43481e-02 -9.43408e-02 2.31207e-13
-1.16081e-01 -8.08366e-02 -1.64698e-13
-1.34346e-01 -6.33713e-02 7.56748e-14
-1.47889e-01 -4.34194e-02 -7.52413e-14
-1.56330e-01 -2.20437e-02 -1.26856e-13
-1.59110e-01 9.39495e-07 -2.07633e-13
-1.56324e-01 2.20359e-02 -3.51152e-14
-1.47881e-01 4.34197e-02 -8.61304e-14
-1.34344e-01 6.33827e-02 1.40600e-13
-1.16068e-01 8.08469e-02 8.10248e-14
-9.43336e-02 9.43421e-02 -2.01890e-13
-7.01041e-02 1.01822e-01 -4.74394e-14
-4.57526e-02 1.00513e-01 1.76438e-14
-2.32051e-02 8.66826e-02 1.22856e-13
-6.77215e-03 5.53839e-02 3.71929e-14
0.00000e+00 0.00000e+00 0.00000e+00
0.00000e+00 0.00000e+00 0.00000e+00
-7.49073e-03 -4.17588e-02 2.57511e-13
-2.55016e-02 -6.51350e-02 -3.82666e-14
-4.99013e-02 -7.52807e-02 -6.78436e-14
-7.59951e-02 -7.59966e-02 2.75723e-14
-1.01838e-01 -7.01041e-02 -6.63394e-14
-1.24898e-01 -5.98377e-02 -1.53604e-13
-1.44209e-01 -4.67739e-02 -9.80383e-14
-1.58443e-01 -3.19740e-02 1.47219e-14
-1.67330e-01 -1.62086e-02 -1.23229e-13
-1.70228e-01 -1.56917e-05 -4.69490e-14
-1.67323e-01 1.62016e-02 1.30724e-14
-1.58427e-01 3.19790e-02 -1.17963e-13
-1.44196e-01 4.67838e-02 5.23466e-14
-1.24876e-01 5.98531e-02 1.08428e-14
-1.01812e-01 7.01052e-02 -4.04150e-14
-7.59802e-02 7.59896e-02 -1.13653e-13
-4.98890e-02 7.52806e-02 -2.19458e-13
-2.54998e-02 6.51185e-02 3.06069e-14
-7.48704e-03 4.17522e-02 -4.19842e-15
0.00000e+00 0.00000e+00 0.00000e+00
0.00000e+00 0.00000e+00 0.00000e+00
-7.61188e-03 -2.74660e-02 -1.08336e-13
-2.56462e-02 -4.30454e-02 -7.84489e-14
-4.97167e-02 -4.97123e-02 -7.59627e-14
-7.52832e-02 -4.98933e-02 1.05007e-13
-1.00514e-01 -4.57427e-02 5.90086e-14
-1.22854e-01 -3.88558e-02 -2.74627e-13
-1.41463e-01 -3.02470e-02 5.54369e-14
-1.55119e-01 -2.06158e-02 -1.27002e-13
-1.63588e-01 -1.04267e-02 6.76052e-14
-1.66382e-01 -1.00847e-05 1.93716e-13
-1.63587e-01 1.04249e-02 1.23896e-13
-1.55120e-01 2.06352e-02 -1.33902e-13
-1.41456e-01 3.02592e-02 -1.54134e-13
-1.22860e-01 3.88529e-02 1.13567e-13
-1.00506e-01 4.57459e-02 1.00984e-13
-7.52854e-02 4.98902e-02 -3.70791e-14
-4.97066e-02 4.97096e-02 -1.05376e-13
-2.56428e-02 4.30424e-02 -2.44085e-13
-7.60908e-03 2.74654e-02 -9.98273e-14
0.00000e+00 0.00000e+00 0.00000e+00
0.00000e+00 0.00000e+00 0.00000e+00
-6.71259e-03 -1.37745e-02 4.95597e-14
-2.22601e-02 -2.22628e-02 -5.42505e-14
-4.30534e-02 -2.56523e-02 1.59717e-14
-6.51362e-02 -2.55080e-02 -8.94168e-14
-8.66903e-02 -2.32199e-02 -1.01541e-13
-1.05559e-01 -1.95830e-02 1.02128e-13
-1.21174e-01 -1.51790e-02 -1.00937e-13
-1.32522e-01 -1.03220e-02 7.64014e-14
-1.39590e-01 -5.20336e-03 -1.08084e-13
-1.41852e-01 -1.34029e-05 -1.27027e-13
-1.39600e-01 5.20412e-03 3.47757e-14
-1.32534e-01 1.03194e-02 -4.02731e-14
-1.21180e-01 1.51923e-02 -5.66524e-14
-1.05559e-01 1.95857e-02 -3.71249e-14
-8.66921e-02 2.32119e-02 -9.90413e-14
-6.51304e-02 2.55026e-02 2.32289e-13
-4.30472e-02 2.56493e-02 -1.20487e-13
-2.22540e-02 2.22599e-02 -9.91544e-14
-6.71416e-03 1.37904e-02 2.32180e-14
0.00000e+00 0.00000e+00 0.00000e+00
0.00000e+00 0.00000e+00 0.00000e+00
-3.84610e-03 -3.85368e-03 -1.01619e-14
-1.37808e-02 -6.70874e-03 -3.82265e-14
-2.74679e-02 -7.61279e-03 1.48134e-13
-4.17542e-02 -7.50146e-03 -9.71401e-15
-5.53884e-02 -6.77117e-03 6.63379e-14
-6.71903e-02 -5.66648e-03 -1.53380e-13
-7.67913e-02 -4.37329e-03 -1.41155e-13
-8.37540e-02 -2.96599e-03 2.74783e-13
-8.80280e-02 -1.49525e-03 3.45302e-13
-8.94457e-02 4.35403e-06 -1.47009e-13
-8.80392e-02 1.47989e-03 -9.35418e-14
-8.37722e-02 2.95354e-03 -8.60964e-15
-7.68047e-02 4.37316e-03 3.96849e-14
-6.71940e-02 5.66916e-03 -1.13033e-13
-5.53882e-02 6.76411e-03 -3.25224e-13
-4.17604e-02 7.48598e-03 -2.17743e-13
-2.74640e-02 7.61051e-03 -7.77612e-14
-1.37924e-02 6.71743e-03 1.02775e-13
-3.84684e-03 3.85112e-03 5.92702e-14
0.00000e+00 0.00000e+00 0.00000e+00
0.00000e+00 0.00000e+00 0.00000e+00
0.00000e+00 0.00000e+00 0.00000e+00
0.00000e+00 0.00000e+00 0.00000e+00
0.00000e+00 0.00000e+00 0.00000e+00
0.00000e+00 0.00000e+00 0.00000e+00
0.00000e+00 0.00000e+00 0.00000e+00
0.00000e+00 0.00000e+00 0.00000e+00
0.00000e+00 0.00000e+00 0.00000e+00
0.00000e+00 0.00000e+00 0.00000e+00
0.00000e+00 0.00000e+00 0.00000e+00
0.00000e+00 0.00000e+00 0.00000e+00
0.00000e+00 0.00000e+00 0.00000e+00
0.00000e+00 0.00000e+00 0.00000e+00
0.00000e+00 0.00000e+00 0.00000e+00
0.00000e+00 0.00000e+00 0.00000e+00
0.00000e+00 0.00000e+00 0.00000e+00
0.00000e+00 0.00000e+00 0.00000e+00
0.00000e+00 0.00000e+00 0.00000e+00
0.00000e+00 0.00000e+00 0.00000e+00
0.00000e+00 0.00000e+00 0.00000e+00
0.00000e+00 0.00000e+00 0.00000e+00
</DataArray>
<DataArray Name="Fiber" type="Float32" NumberOfComponents="3" format="ascii">
0.00000e+00 0.00000e+00 1.00000e+00
0.00000e+00 0.00000e+00 1.00000e+00
0.00000e+00 0.00000e+00 1.00000e+00
0.00000e+00 0.00000e+00 1.00000e+00
0.00000e+00 0.00000e+00 1.00000e+00
0.00000e+00 0.00000e+00 1.00000e+00
0.00000e+00 0.00000e+00 1.00000e+00
0.00000e+00 0.00000e+00 1.00000e+00
0.00000e+00 0.00000e+00 1.00000e+00
0.00000e+00 0.00000e+00 1.00000e+00
0.00000e+00 0.00000e+00 1.00000e+00
0.00000e+00 0.00000e+00 1.00000e+00
0.00000e+00 0.00000e+00 1.00000e+00
0.00000e+00 0.00000e+00 1.00000e+00
0.00000e+00 0.00000e+00 1.00000e+00
0.00000e+00 0.00000e+00 1.00000e+00
0.00000e+00 0.00000e+00 1.00000e+00
0.00000e+00 0.00000e+00 1.00000e+00
0.00000e+00 0.00000e+00 1.00000e+00
0.00000e+00 0.00000e+00 1.00000e+00
0.00000e+00 0.00000e+00 1.00000e+00
0.00000e+00 0.00000e+00 1.00000e+00
4.52094e-01 4.66139e-01 -7.58056e-01
-3.11738e-01 -8.67272e-01 -3.99856e-01
2.10455e-01 8.66675e-01 -4.68577e-01
-1.29295e-01 -6.09591e-01 7.85058e-01
2.01877e-03 5.34481e-01 -8.45818e-01
5.67094e-02 -3.98419e-01 9.15848e-01
-1.56169e-02 3.25526e-01 9.47492e-01
4.30698e-02 9.45602e-01 -3.24899e-01
5.98271e-02 8.33720e-02 9.94844e-01
-1.10126e-02 2.10635e-02 -1.00004e+00
1.62947e-02 -4.82636e-01 -8.75792e-01
-2.29480e-02 -3.34182e-01 -9.43065e-01
3.54836e-02 -9.26491e-01 3.79753e-01
1.08335e-01 -9.74485e-01 -1.98851e-01
5.52549e-02 -9.85377e-01 1.64387e-01
-1.92106e-01 8.55594e-01 4.85787e-01
3.56673e-01 -7.75054e-01 -5.35670e-01
-1.78368e-01 3.64645e-01 9.17759e-01
-6.78564e-01 6.62959e-01 -3.10234e-01
0.00000e+00 0.00000e+00 1.00000e+00
0.00000e+00 0.00000e+00 1.00000e+00
-4.38613e-01 -1.35962e-01 -8.93504e-01
5.51764e-01 5.65902e-01 6.24666e-01
-1.07609e-01 -4.69635e-02 -9.92595e-01
1.31573e-01 3.80933e-01 -9.16728e-01
1.39178e-01 9.90565e-01 5.62471e-03
1.94467e-01 9.62683e-01 1.46910e-01
1.19105e-01 2.67419e-01 9.49032e-01
-9.22426e-02 -5.47607e-01 -8.27085e-01
4.22572e-03 1.33834e-01 9.90533e-01
4.48266e-03 -9.76604e-01 2.14911e-01
5.81461e-02 9.89147e-01 1.31043e-01
3.50828e-02 -9.74870e-01 -2.01936e-01
1.30033e-02 -8.34586e-02 -9.89578e-01
-4.90735e-02 9.70176e-01 2.06035e-01
-1.44252e-01 4.38174e-01 -8.87755e-01
-1.84620e-01 4.69883e-01 8.64801e-01
4.10102e-01 -4.53128e-01 -7.91024e-01
3.44057e-01 -3.44634e-01 -8.81770e-01
-5.22137e-01 2.67520e-01 8.14230e-01
0.00000e+00 0.00000e+00 1.00000e+00
0.00000e+00 0.00000e+00 1.00000e+00
9.97405e-01 1.18416e-01 -7.83561e-02
3.74016e-01 5.75996e-02 -9.25124e-01
-2.02509e-01 -1.69912e-01 -9.65604e-01
2.57545e-01 2.06406e-01 -9.43369e-01
-6.35889e-02 4.57966e-01 8.78210e-01
-5.86535e-02 7.69018e-01 -6.28918e-01
-2.61351e-01 -6.68834e-01 -6.98514e-01
-1.98525e-01 1.81502e-01 -9.60993e-01
-2.13679e-01 -9.71536e-01 -9.94216e-02
-3.03175e-03 -9.57149e-01 2.90334e-01
1.29026e-01 -5.28554e-01 -8.38646e-01
1.43538e-01 -3.70935e-01 -9.15296e-01
-1.44633e-01 9.80823e-01 1.42378e-01
2.17001e-01 -3.26275e-01 9.14397e-01
9.63450e-02 -2.37136e-01 9.58831e-01
2.27777e-01 -7.10845e-01 -6.64800e-01
-8.14450e-01 5.33621e-01 -2.32609e-01
6.32576e-01 -5.96743e-01 -4.92994e-01
8.89733e-01 -3.53895e-01 -3.13154e-01
0.00000e+00 0.00000e+00 1.00000e+00
0.00000e+00 0.00000e+00 1.00000e+00
-9.33834e-01 -1.23887e-01 -3.42292e-01
-7.97952e-01 -3.59759e-01 -4.86435e-01
6.00904e-01 3.31883e-01 7.26402e-01
8.36940e-01 5.01958e-01 1.87668e-01
4.20218e-01 7.55021e-01 -4.92424e-01
3.34585e-01 4.60889e-01 -8.20678e-01
-3.85276e-01 -9.08266e-01 -1.33669e-01
-1.32938e-01 -6.72626e-01 -7.26893e-01
-4.64808e-02 2.36834e-01 9.71094e-01
-1.00769e-01 7.45709e-01 6.59062e-01
-1.10113e-01 -6.73984e-01 -7.31419e-01
8.26026e-02 -4.78483e-01 8.73272e-01
3.08974e-01 -5.75334e-01 7.51592e-01
-4.49772e-01 7.49499e-01 4.83335e-01
-3.25527e-01 -3.15700e-01 -8.85136e-01
2.27694e-01 -6.89403e-01 6.78726e-01
4.56854e-01 -4.56555e-01 7.62942e-01
-1.47443e-01 -1.61929e-01 -9.77135e-01
-4.30557e-01 2.54917e-02 -9.04988e-01
0.00000e+00 0.00000e+00 1.00000e+00
0.00000e+00 0.00000e+00 1.00000e+00
-7.22829e-01 -4.59685e-02 -6.90236e-01
-9.47918e-01 -1.53598e-01 -2.79796e-01
3.36190e-02 -1.11037e-01 -9.85739e-01
-5.47856e-01 -3.49569e-01 7.52876e-01
-3.75262e-01 -8.95646e-01 2.21158e-01
-7.44167e-01 -5.96640e-01 3.00297e-01
2.46293e-01 2.46248e-01 -9.32539e-01
-3.89256e-01 -7.84972e-01 -4.74821e-01
-5.19644e-02 4.44873e-01 -8.91417e-01
8.92466e-02 -8.67264e-01 4.84966e-01
3.06659e-01 -9.18255e-01 2.40751e-01
7.32718e-02 2.52907e-01 9.61122e-01
2.08544e-01 3.18965e-01 -9.19720e-01
-1.90026e-02 -5.18199e-01 -8.54941e-01
1.04131e-01 -9.88895e-01 -5.56884e-02
1.40136e-01 6.83394e-02 9.82254e-01
-3.06788e-01 2.20884e-01 -9.17669e-01
5.06126e-02 1.47360e-01 -9.87940e-01
-9.05769e-01 2.34870e-01 3.54298e-01
0.00000e+00 0.00000e+00 1.00000e+00
0.00000e+00 0.00000e+00 1.00000e+00
-6.28249e-01 -3.83440e-02 -7.77599e-01
-5.51487e-01 -6.37527e-02 -8.23515e-01
4.82641e-01 -1.28018e-01 8.60740e-01
3.26298e-01 6.21175e-01 7.11059e-01
1.88063e-01 8.30681e-01 -5.24044e-01
-6.54399e-01 -7.06729e-01 2.65035e-01
-1.63163e-01 7.86629e-01 5.93848e-01
-3.25295e-01 3.41184e-02 -9.43286e-01
-4.04408e-01 -6.15777e-01 -6.73544e-01
3.96829e-01 -9.14736e-01 4.49510e-02
6.26722e-02 9.93609e-01 7.26891e-02
8.15779e-01 -5.72062e-01 6.34979e-02
4.18204e-01 -3.07322e-01 -8.53634e-01
6.11479e-01 -7.26087e-01 -3.11125e-01
-4.42044e-01 8.76229e-01 1.91086e-01
9.27206e-01 -3.29475e-01 -1.71697e-01
8.74041e-01 -3.48549e-01 3.22172e-01
4.90573e-01 8.01278e-02 8.59726e-01
-9.88375e-01 1.37128e-01 -7.33452e-02
0.00000e+00 0.00000e+00 1.00000e+00
0.00000e+00 0.00000e+00 1.00000e+00
2.96016e-01 3.59251e-02 9.56598e-01
3.97695e-01 -8.46168e-02 9.06120e-01
5.91138e-01 -1.60600e-01 7.92666e-01
-9.03017e-01 -1.81524e-01 3.77964e-01
7.88467e-02 7.67424e-01 6.29016e-01
-9.54978e-01 1.86769e-01 -2.26388e-01
-8.00387e-01 -3.95930e-01 -4.38055e-01
-9.82281e-01 -1.32142e-01 -6.80133e-02
-4.67774e-02 2.06934e-01 -9.70820e-01
-5.94891e-01 -6.10319e-01 -5.10888e-01
5.03755e-01 7.82210e-01 3.49201e-01
8.24658e-01 -3.35058e-01 -4.41194e-01
3.92291e-01 4.19781e-01 8.11958e-01
8.46054e-01 2.68139e-01 4.58545e-01
-7.53205e-01 6.50731e-01 -4.97277e-03
6.22616e-01 3.66167e-01 6.85542e-01
-6.96836e-01 2.05773e-01 6.89541e-01
-6.69770e-01 -2.65089e-02 -7.33031e-01
4.93686e-01 -1.30869e-01 8.62014e-01
0.00000e+00 0.00000e+00 1.00000e+00
0.00000e+00 0.00000e+00 1.00000e+00
-8.41691e-01 -6.52683e-02 -5.37464e-01
-7.15406e-01 -1.46384e-01 -6.77563e-01
2.59197e-02 -3.10252e-01 9.47963e-01
8.80757e-01 1.06675e-01 4.59810e-01
-9.66002e-01 -4.43560e-02 -2.40965e-01
-7.81586e-01 7.86985e-02 -6.16229e-01
-8.26946e-01 1.73884e-02 5.50249e-01
-6.11322e-01 -7.21002e-01 -3.18109e-01
-7.46448e-01 5.46756e-01 3.81801e-01
1.47336e-01 -4.55442e-01 -8.80124e-01
2.93175e-01 6.04258e-01 -7.42133e-01
4.55571e-01 8.16023e-01 3.48097e-01
8.14677e-01 4.30176e-01 -3.71702e-01
9.96058e-01 6.72199e-02 6.39492e-03
-3.32969e-01 5.34287e-01 -7.72537e-01
7.85980e-02 2.24942e-01 9.70364e-01
7.06651e-01 -1.14347e-01 6.94901e-01
-8.37111e-01 -1.72174e-01 5.11879e-01
6.30309e-01 -5.90445e-02 -7.75151e-01
0.00000e+00 0.00000e+00 1.00000e+00
0.00000e+00 0.00000e+00 1.00000e+00
-2.67853e-01 1.11482e-02 -9.63481e-01
5.60518e-01 5.28457e-02 8.25806e-01
-9.92071e-01 -1.22106e-01 1.38292e-02
-4.70454e-01 -1.80953e-01 -8.64460e-01
2.53849e-01 -2.53591e-01 9.30876e-01
-6.31683e-01 -3.93176e-01 -6.65352e-01
4.77630e-01 -1.70172e-01 -8.54623e-01
-3.05315e-01 -9.44294e-01 -1.30545e-01
3.50198e-01 -3.41777e-01 8.72167e-01
2.99256e-01 -9.04102e-01 -3.19840e-01
7.75862e-01 5.04982e-01 3.78066e-01
7.87505e-01 6.17281e-01 2.90057e-02
5.54205e-01 1.51399e-01 -8.10753e-01
-2.27621e-01 -4.09861e-01 -8.80940e-01
-1.25999e-01 -5.45296e-01 -8.25796e-01
7.34194e-01 -1.36974e-01 -6.65910e-01
-2.77984e-01 1.54173e-01 9.47773e-01
-1.54331e-01 2.69279e-02 -9.86740e-01
8.58835e-01 -2.77083e-02 -5.11711e-01
0.00000e+00 0.00000e+00 1.00000e+00
0.00000e+00 0.00000e+00 1.00000e+00
-7.82563e-01 6.09008e-02 -6.20154e-01
-2.72411e-01 1.27319e-01 -9.53752e-01
8.98566e-01 8.43742e-02 4.31226e-01
1.74148e-01 -1.33116e-01 -9.75896e-01
3.60045e-01 -5.39848e-01 -7.57866e-01
-6.83672e-01 -5.15969e-01 -5.12179e-01
-2.07450e-01 -7.25660e-01 6.46486e-01
-6.11482e-01 -5.10898e-01 -6.07248e-01
2.80098e-02 1.72569e-02 1.00403e+00
-4.37563e-01 1.46693e-01 -8.81967e-01
-5.65003e-01 6.86537e-01 4.67992e-01
9.27366e-01 3.79203e-01 2.90287e-03
-9.12296e-01 -3.46355e-01 1.88083e-01
5.55583e-01 -7.83374e-01 2.72190e-01
-5.79730e-01 -8.10162e-01 5.45483e-02
-3.87939e-01 -1.12265e-01 -9.14994e-01
-9.98263e-01 5.96378e-02 1.42005e-02
-8.90148e-01 6.62800e-02 4.50669e-01
9.87745e-01 8.84584e-02 -1.31242e-01
0.00000e+00 0.00000e+00 1.00000e+00
0.00000e+00 0.00000e+00 1.00000e+00
8.46757e-01 -1.81876e-03 5.32161e-01
-4.31027e-01 2.31444e-02 -9.01415e-01
6.07582e-01 2.17069e-01 7.63598e-01
-9.48734e-01 3.18176e-01 9.37590e-03
7.32854e-01 -6.09856e-01 -2.93741e-01
-5.76969e-01 -7.99774e-01 1.54191e-01
-7.58573e-01 -6.30323e-01 -1.22085e-01
-9.04261e-01 2.97897e-01 -3.08965e-01
6.43327e-01 5.42374e-01 -5.40345e-01
6.70344e-01 7.01392e-01 2.61513e-01
-4.54184e-01 -8.86186e-01 9.04591e-02
5.94260e-01 6.30301e-01 -5.01584e-01
5.62175e-02 -3.00525e-01 9.45491e-01
-4.29990e-01 -8.34328e-01 3.38928e-01
7.74084e-01 -2.33886e-01 -5.84261e-01
-6.80309e-01 -4.40115e-01 5.87049e-01
-9.54551e-01 1.59568e-01 2.50438e-01
-9.74343e-01 1.18598e-02 2.20760e-01
3.81080e-02 -1.64489e-03 -9.99375e-01
0.00000e+00 0.00000e+00 1.00000e+00
0.00000e+00 0.00000e+00 1.00000e+00
9.82724e-01 -5.40561e-02 -1.81377e-01
-3.94073e-01 1.60732e-01 -9.00697e-01
-8.66226e-01 2.28500e-01 4.39507e-01
-2.03765e-01 1.70554e-01 9.63225e-01
-9.91916e-01 9.54688e-02 7.66692e-03
-4.16791e-01 -3.04338e-01 8.54606e-01
-6.98989e-01 -3.62999e-01 6.05621e-01
9.35328e-01 3.14528e-01 1.44561e-01
8.62694e-01 -3.95388e-01 3.18292e-01
7.26398e-01 -8.70883e-02 6.84563e-01
4.50531e-01 -1.75575e-01 -8.76364e-01
-8.41287e-01 -2.42118e-01 4.77676e-01
-5.88679e-01 -4.93632e-01 6.29932e-01
6.82042e-01 -7.01783e-02 -7.25703e-01
-4.27473e-01 -6.82354e-01 5.87042e-01
-3.56836e-01 -2.84423e-01 -8.88858e-01
-8.68487e-01 -8.06376e-02 -4.84264e-01
1.19673e-01 1.64964e-01 9.75111e-01
-8.75892e-01 -6.39283e-02 -4.79902e-01
0.00000e+00 0.00000e+00 1.00000e+00
0.00000e+00 0.00000e+00 1.00000e+00
6.47408e-01 -1.69098e-02 -7.64533e-01
-9.26689e-02 -9.02020e-02 9.84721e-01
-3.34894e-01 2.54240e-01 9.09210e-01
6.03508e-01 3.91525e-02 -7.90954e-01
-3.16680e-02 -3.42693e-02 9.94335e-01
-1.71768e-01 -1.13953e-01 9.77576e-01
-8.71826e-02 8.97695e-01 -4.19372e-01
6.39278e-01 6.09557e-01 4.54865e-01
7.32218e-01 5.55419e-01 -3.77899e-01
6.37350e-01 7.61489e-01 3.59626e-02
2.53974e-01 9.29441e-01 -2.42942e-01
-1.82672e-01 9.08276e-01 -3.58685e-01
-4.64949e-01 5.81047e-01 -6.59950e-01
-6.86870e-01 -1.28898e-01 -7.13822e-01
6.82161e-01 4.65226e-01 5.55993e-01
6.74320e-01 1.09431e-01 -7.24626e-01
5.59038e-01 -5.01415e-02 -8.29665e-01
-9.65711e-01 -2.30090e-01 3.32540e-02
7.00812e-01 8.56165e-02 -7.10967e-01
0.00000e+00 0.00000e+00 1.00000e+00
0.00000e+00 0.00000e+00 1.00000e+00
1.88616e-01 -9.63974e-02 -9.77759e-01
-7.91524e-01 2.09046e-01 -5.62035e-01
4.17506e-02 -1.28543e-02 -9.93866e-01
-7.10874e-01 1.88719e-01 -6.75884e-01
-6.52311e-01 3.30997e-01 6.81799e-01
-4.32567e-01 8.99005e-01 -5.03273e-02
5.96631e-01 4.65462e-01 6.52295e-01
7.90015e-01 1.92763e-02 6.10205e-01
8.39196e-01 -3.12350e-02 -5.39538e-01
2.17176e-01 6.92768e-01 -6.84960e-01
-4.44770e-01 3.46721e-01 -8.23540e-01
-5.64117e-01 -8.10070e-01 1.49768e-01
-8.56827e-01 -1.39919e-01 4.94222e-01
-4.32582e-01 3.36388e-02 8.99774e-01
1.69113e-01 6.31192e-01 -7.56711e-01
8.46256e-01 4.97211e-01 1.85276e-01
6.33351e-01 3.28951e-01 6.92828e-01
-7.20513e-01 -1.22884e-01 6.72292e-01
-5.33984e-01 -1.40342e-02 8.46004e-01
0.00000e+00 0.00000e+00 1.00000e+00
0.00000e+00 0.00000e+00 1.00000e+00
-7.10852e-01 1.15038e-01 -6.94608e-01
-3.79384e-01 8.35374e-02 9.21758e-01
-1.08392e-01 7.60636e-02 -9.83538e-01
-5.70738e-01 -3.50980e-02 8.13725e-01
-5.57809e-01 5.87764e-01 5.79030e-01
-1.67184e-02 9.93982e-01 1.07583e-01
2.04854e-01 8.10806e-01 -5.40089e-01
2.03427e-01 8.76175e-01 -4.29037e-01
1.35571e-02 4.52540e-01 -8.88990e-01
-4.13592e-01 8.38832e-01 3.47470e-01
-1.09236e-01 9.30635e-01 3.42490e-01
-2.50317e-01 2.43353e-01 -9.33377e-01
1.43174e-01 -5.36107e-01 8.26600e-01
-8.45811e-01 -4.88973e-01 2.12410e-01
1.05275e-01 9.60004e-01 -2.43224e-01
7.86856e-01 1.85541e-01 5.79222e-01
-5.81983e-01 -2.56722e-02 8.03571e-01
8.51321e-01 3.06162e-01 4.26687e-01
-8.83989e-01 -1.57393e-01 -4.41414e-01
0.00000e+00 0.00000e+00 1.00000e+00
0.00000e+00 0.00000e+00 1.00000e+00
9.75224e-01 -1.37011e-01 -1.86889e-01
-6.95597e-01 3.29947e-01 6.40368e-01
-2.18890e-01 7.04808e-02 9.72730e-01
-8.32196e-01 4.88397e-01 2.38146e-01
-3.60321e-01 9.24705e-01 6.53917e-02
9.95861e-02 3.21516e-01 -9.40419e-01
6.13680e-01 -7.80111e-01 7.95396e-02
1.68527e-01 -3.74961e-01 -9.10672e-01
-1.78583e-01 -9.71440e-01 -1.60461e-01
-3.56440e-01 -3.33767e-01 -8.72913e-01
-4.08487e-01 -8.92403e-01 -1.94990e-01
3.15459e-01 7.81879e-01 5.36175e-01
-2.81176e-01 -6.85071e-01 -6.65790e-01
-3.42625e-01 -9.18569e-01 1.90768e-01
-4.58976e-01 5.80813e-02 8.80403e-01
-7.78621e-01 -5.39095e-01 -3.01735e-01
7.40156e-01 4.30951e-01 5.15498e-01
8.89313e-01 3.14827e-01 -3.35814e-01
9.72110e-01 2.31019e-01 8.21374e-02
0.00000e+00 0.00000e+00 1.00000e+00
0.00000e+00 0.00000e+00 1.00000e+00
-8.92681e-01 3.36897e-01 -3.23266e-01
6.80050e-01 -2.77265e-01 -6.78091e-01
5.92441e-01 -7.02766e-01 -3.96714e-01
3.67453e-01 -7.34448e-01 5.69772e-01
-3.49719e-01 2.66526e-02 9.28378e-01
-4.78307e-01 8.39579e-01 2.37070e-01
-2.45421e-01 1.08557e-01 -9.65054e-01
-6.54994e-02 -2.84994e-01 9.54161e-01
2.37075e-01 7.67398e-01 -5.95092e-01
1.26109e-01 -2.76955e-01 9.52674e-01
2.48387e-01 5.14766e-02 -9.66889e-01
2.48609e-01 5.88770e-01 -7.66532e-01
-7.72675e-02 -1.27499e-01 9.90438e-01
-2.23841e-01 -9.42966e-01 -2.24606e-01
-9.94311e-02 -1.41502e-01 9.77316e-01
5.21434e-01 8.38090e-01 -1.57762e-01
-4.78051e-01 -5.47937e-01 -6.88091e-01
-4.83710e-01 -1.91018e-01 -8.53766e-01
3.88298e-01 1.85989e-01 9.10741e-01
0.00000e+00 0.00000e+00 1.00000e+00
0.00000e+00 0.00000e+00 1.00000e+00
-5.02294e-01 3.77172e-01 7.83511e-01
3.96868e-01 -5.74360e-01 -7.26170e-01
-3.70743e-01 7.05009e-01 6.03908e-01
-2.02828e-01 -1.42094e-01 9.70280e-01
4.72518e-03 -4.88089e-01 -8.73223e-01
-6.83409e-02 -3.43678e-01 -9.29201e-01
-1.87730e-02 -8.12249e-01 5.71307e-01
-3.69176e-02 5.34149e-01 -8.40053e-01
1.73283e-01 9.74376e-01 -1.38430e-01
2.47677e-01 8.82615e-01 -3.99339e-01
3.79780e-02 9.92655e-01 -1.08678e-01
-9.09466e-02 -9.54901e-01 2.68688e-01
4.87662e-02 -8.79184e-01 4.59594e-01
-1.12979e-02 2.72938e-01 -9.54822e-01
1.04109e-01 8.90908e-01 4.42835e-01
-4.47469e-01 -8.85141e-01 -1.38047e-01
6.76792e-01 6.88737e-01 2.58666e-01
1.27272e-01 1.38176e-01 -9.89637e-01
-4.61248e-01 -4.21430e-01 -7.85266e-01
0.00000e+00 0.00000e+00 1.00000e+00
0.00000e+00 0.00000e+00 1.00000e+00
6.08633e-01 -5.45757e-01 -5.72658e-01
2.56510e-01 -5.20955e-01 8.18767e-01
8.23614e-02 -7.64016e-01 -6.51453e-01
1.42460e-01 -6.95125e-01 7.08090e-01
-3.50181e-02 3.66501e-01 9.30316e-01
-7.08254e-02 5.46098e-02 -9.96438e-01
1.90374e-02 -6.02740e-01 8.00166e-01
1.42964e-02 9.00080e-01 4.37314e-01
-7.85107e-02 -2.72156e-02 9.96664e-01
6.80024e-02 -7.39948e-01 6.69754e-01
1.70158e-02 8.99892e-01 4.36101e-01
9.03958e-03 7.20076e-01 -6.94991e-01
-6.26551e-02 -9.30474e-01 -3.66332e-01
7.81917e-02 7.02492e-01 7.08115e-01
-1.79025e-01 -8.27024e-01 5.33884e-01
-1.39108e-01 -9.31894e-01 3.42557e-01
3.20680e-01 9.02919e-01 -3.10955e-01
-3.02277e-01 -2.09197e-01 -9.33760e-01
-7.13031e-01 -6.72410e-01 -1.88703e-01
0.00000e+00 0.00000e+00 1.00000e+00
0.00000e+00 0.00000e+00 1.00000e+00
0.00000e+00 0.00000e+00 1.00000e+00
0.00000e+00 0.00000e+00 1.00000e+00
0.00000e+00 0.00000e+00 1.00000e+00
0.00000e+00 0.00000e+00 1.00000e+00
0.00000e+00 0.00000e+00 1.00000e+00
0.00000e+00 0.00000e+00 1.00000e+00
0.00000e+00 0.00000e+00 1.00000e+00
0.00000e+00 0.00000e+00 1.00000e+00
0.00000e+00 0.00000e+00 1.00000e+00
0.00000e+00 0.00000e+00 1.00000e+00
0.00000e+00 0.00000e+00 1.00000e+00
0.00000e+00 0.00000e+00 1.00000e+00
0.00000e+00 0.00000e+00 1.00000e+00
0.00000e+00 0.00000e+00 1.00000e+00
0.00000e+00 0.00000e+00 1.00000e+00
0.00000e+00 0.00000e+00 1.00000e+00
0.00000e+00 0.00000e+00 1.00000e+00
0.00000e+00 0.00000e+00 1.00000e+00
0.00000e+00 0.00000e+00 1.00000e+00
0.00000e+00 0.00000e+00 1.00000e+00
</DataArray>
<DataArray Name="Disp_FEM" type="Float32" NumberOfComponents="3" format="ascii">
0.00000e+00 0.00000e+00 0.00000e+00
0.00000e+00 0.00000e+00 0.00000e+00
0.00000e+00 0.00000e+00 0.00000e+00
0.00000e+00 0.00000e+00 0.00000e+00
0.00000e+00 0.00000e+00 0.00000e+00
0.00000e+00 0.00000e+00 0.00000e+00
0.00000e+00 0.00000e+00 0.00000e+00
0.00000e+00 0.00000e+00 0.00000e+00
0.00000e+00 0.00000e+00 0.00000e+00
0.00000e+00 0.00000e+00 0.00000e+00
0.00000e+00 0.00000e+00 0.00000e+00
0.00000e+00 0.00000e+00 0.00000e+00
0.00000e+00 0.00000e+00 0.00000e+00
0.00000e+00 0.00000e+00 0.00000e+00
0.00000e+00 0.00000e+00 0.00000e+00
0.00000e+00 0.00000e+00 0.00000e+00
0.00000e+00 0.00000e+00 0.00000e+00
0.00000e+00 0.00000e+00 0.00000e+00
0.00000e+00 0.00000e+00 0.00000e+00
0.00000e+00 0.00000e+00 0.00000e+00
0.00000e+00 0.00000e+00 0.00000e+00
0.00000e+00 0.00000e+00 0.00000e+00
-1.86370e-21 -1.86370e-21 -9.22329e-05
-2.94950e-21 -4.30693e-21 -3.48020e-04
-3.40390e-21 -7.53324e-21 -6.93253e-04
-3.45570e-21 -1.09252e-20 -1.05715e-03
-3.22891e-21 -1.41822e-20 -1.40042e-03
-2.79407e-21 -1.70489e-20 -1.69964e-03
-2.21365e-21 -1.93950e-20 -1.94122e-03
-1.52927e-21 -2.11191e-20 -2.11762e-03
-7.80534e-22 -2.21747e-20 -2.22473e-03
7.80051e-35 -2.25277e-20 -2.26063e-03
7.80534e-22 -2.21747e-20 -2.22473e-03
1.52927e-21 -2.11191e-20 -2.11762e-03
2.21365e-21 -1.93950e-20 -1.94122e-03
2.79407e-21 -1.70489e-20 -1.69964e-03
3.22891e-21 -1.41822e-20 -1.40042e-03
3.45570e-21 -1.09252e-20 -1.05715e-03
3.40390e-21 -7.53324e-21 -6.93253e-04
2.94950e-21 -4.30693e-21 -3.48020e-04
1.86370e-21 -1.86370e-21 -9.22329e-05
0.00000e+00 0.00000e+00 0.00000e+00
0.00000e+00 0.00000e+00 0.00000e+00
-4.30693e-21 -2.94950e-21 -3.48020e-04
-6.99031e-21 -6.99031e-21 -1.25472e-03
-8.07261e-21 -1.18008e-20 -2.45790e-03
-8.13881e-21 -1.70148e-20 -3.74115e-03
-7.52052e-21 -2.20921e-20 -4.96252e-03
-6.44865e-21 -2.66665e-20 -6.03511e-03
-5.06443e-21 -3.04492e-20 -6.90605e-03
-3.47865e-21 -3.32680e-20 -7.54449e-03
-1.76823e-21 -3.49975e-20 -7.93318e-03
9.51306e-34 -3.55834e-20 -8.06360e-03
1.76823e-21 -3.49975e-20 -7.93318e-03
3.47865e-21 -3.32680e-20 -7.54449e-03
5.06443e-21 -3.04492e-20 -6.90605e-03
6.44865e-21 -2.66665e-20 -6.03511e-03
7.52052e-21 -2.20921e-20 -4.96252e-03
8.13881e-21 -1.70148e-20 -3.74115e-03
8.07261e-21 -1.18008e-20 -2.45790e-03
6.99031e-21 -6.99031e-21 -1.25472e-03
4.30693e-21 -2.94950e-21 -3.48020e-04
0.00000e+00 0.00000e+00 0.00000e+00
0.00000e+00 0.00000e+00 0.00000e+00
-7.53324e-21 -3.40390e-21 -6.93253e-04
-1.18008e-20 -8.07261e-21 -2.45790e-03
-1.36759e-20 -1.36759e-20 -4.77525e-03
-1.37530e-20 -1.96145e-20 -7.26177e-03
-1.26734e-20 -2.55098e-20 -9.64849e-03
-1.08164e-20 -3.08593e-20 -1.17593e-02
-8.46427e-21 -3.53528e-20 -1.34831e-02
-5.79335e-21 -3.87158e-20 -1.47519e-02
-2.93965e-21 -4.08015e-20 -1.55264e-02
1.42917e-34 -4.15025e-20 -1.57866e-02
2.93965e-21 -4.08015e-20 -1.55264e-02
5.79335e-21 -3.87158e-20 -1.47519e-02
8.46427e-21 -3.53528e-20 -1.34831e-02
1.08164e-20 -3.08593e-20 -1.17593e-02
1.26734e-20 -2.55098e-20 -9.64849e-03
1.37530e-20 -1.96145e-20 -7.26177e-03
1.36759e-20 -1.36759e-20 -4.77525e-03
1.18008e-20 -8.07261e-21 -2.45790e-03
7.53324e-21 -3.40390e-21 -6.93253e-04
0.00000e+00 0.00000e+00 0.00000e+00
0.00000e+00 0.00000e+00 0.00000e+00
-1.09252e-20 -3.45570e-21 -1.05715e-03
-1.70148e-20 -8.13881e-21 -3.74115e-03
-1.96145e-20 -1.37530e-20 -7.26177e-03
-1.97752e-20 -1.97752e-20 -1.10517e-02
-1.82145e-20 -2.57258e-20 -1.47101e-02
-1.55440e-20 -3.12010e-20 -1.79634e-02
-1.21462e-20 -3.58150e-20 -2.06323e-02
-8.30721e-21 -3.93073e-20 -2.26035e-02
-4.21072e-21 -4.14711e-20 -2.38096e-02
2.29926e-33 -4.22086e-20 -2.42153e-02
4.21072e-21 -4.14711e-20 -2.38096e-02
8.30721e-21 -3.93073e-20 -2.26035e-02
1.21462e-20 -3.58150e-20 -2.06323e-02
1.55440e-20 -3.12010e-20 -1.79634e-02
1.82145e-20 -2.57258e-20 -1.47101e-02
1.97752e-20 -1.97752e-20 -1.10517e-02
1.96145e-20 -1.37530e-20 -7.26177e-03
1.70148e-20 -8.13881e-21 -3.74115e-03
1.09252e-20 -3.45570e-21 -1.05715e-03
0.00000e+00 0.00000e+00 0.00000e+00
0.00000e+00 0.00000e+00 0.00000e+00
-1.41822e-20 -3.22891e-21 -1.40042e-03
-2.20921e-20 -7.52052e-21 -4.96252e-03
-2.55098e-20 -1.26734e-20 -9.64849e-03
-2.57258e-20 -1.82145e-20 -1.47101e-02
-2.37496e-20 -2.37496e-20 -1.96156e-02
-2.02778e-20 -2.88405e-20 -2.39956e-02
-1.58580e-20 -3.31751e-20 -2.76012e-02
-1.08436e-20 -3.64563e-20 -3.02714e-02
-5.49773e-21 -3.85083e-20 -3.19081e-02
-1.01871e-34 -3.92003e-20 -3.24591e-02
5.49773e-21 -3.85083e-20 -3.19081e-02
1.08436e-20 -3.64563e-20 -3.02714e-02
1.58580e-20 -3.31751e-20 -2.76012e-02
2.02778e-20 -2.88405e-20 -2.39956e-02
2.37496e-20 -2.37496e-20 -1.96156e-02
2.57258e-20 -1.82145e-20 -1.47101e-02
2.55098e-20 -1.26734e-20 -9.64849e-03
2.20921e-20 -7.52052e-21 -4.96252e-03
1.41822e-20 -3.22891e-21 -1.40042e-03
0.00000e+00 0.00000e+00 0.00000e+00
0.00000e+00 0.00000e+00 0.00000e+00
-1.70489e-20 -2.79407e-21 -1.69964e-03
-2.66665e-20 -6.44865e-21 -6.03511e-03
-3.08593e-20 -1.08164e-20 -1.17593e-02
-3.12010e-20 -1.55440e-20 -1.79634e-02
-2.88405e-20 -2.02778e-20 -2.39956e-02
-2.46711e-20 -2.46711e-20 -2.93975e-02
-1.93069e-20 -2.84097e-20 -3.38558e-02
-1.32140e-20 -3.12628e-20 -3.71642e-02
-6.69991e-21 -3.30409e-20 -3.91949e-02
1.32030e-33 -3.36492e-20 -3.98790e-02
6.69991e-21 -3.30409e-20 -3.91949e-02
1.32140e-20 -3.12628e-20 -3.71642e-02
1.93069e-20 -2.84097e-20 -3.38558e-02
2.46711e-20 -2.46711e-20 -2.93975e-02
2.88405e-20 -2.02778e-20 -2.39956e-02
3.12010e-20 -1.55440e-20 -1.79634e-02
3.08593e-20 -1.08164e-20 -1.17593e-02
2.66665e-20 -6.44865e-21 -6.03511e-03
1.70489e-20 -2.79407e-21 -1.69964e-03
0.00000e+00 0.00000e+00 0.00000e+00
0.00000e+00 0.00000e+00 0.00000e+00
-1.93950e-20 -2.21365e-21 -1.94122e-03
-3.04492e-20 -5.06443e-21 -6.90605e-03
-3.53528e-20 -8.46427e-21 -1.34831e-02
-3.58150e-20 -1.21462e-20 -2.06323e-02
-3.31751e-20 -1.58580e-20 -2.76012e-02
-2.84097e-20 -1.93069e-20 -3.38558e-02
-2.22628e-20 -2.22628e-20 -3.90276e-02
-1.52441e-20 -2.45139e-20 -4.28710e-02
-7.73430e-21 -2.59276e-20 -4.52324e-02
-6.80398e-33 -2.64053e-20 -4.60284e-02
7.73430e-21 -2.59276e-20 -4.52324e-02
1.52441e-20 -2.45139e-20 -4.28710e-02
2.22628e-20 -2.22628e-20 -3.90276e-02
2.84097e-20 -1.93069e-20 -3.38558e-02
3.31751e-20 -1.58580e-20 -2.76012e-02
3.58150e-20 -1.21462e-20 -2.06323e-02
3.53528e-20 -8.46427e-21 -1.34831e-02
3.04492e-20 -5.06443e-21 -6.90605e-03
1.93950e-20 -2.21365e-21 -1.94122e-03
0.00000e+00 0.00000e+00 0.00000e+00
0.00000e+00 0.00000e+00 0.00000e+00
-2.11191e-20 -1.52927e-21 -2.11762e-03
-3.32680e-20 -3.47865e-21 -7.54449e-03
-3.87158e-20 -5.79335e-21 -1.47519e-02
-3.93073e-20 -8.30721e-21 -2.26035e-02
-3.64563e-20 -1.08436e-20 -3.02714e-02
-3.12628e-20 -1.32140e-20 -3.71642e-02
-2.45139e-20 -1.52441e-20 -4.28710e-02
-1.67995e-20 -1.67995e-20 -4.71162e-02
-8.52462e-21 -1.77716e-20 -4.97263e-02
-5.88378e-33 -1.81048e-20 -5.06064e-02
8.52462e-21 -1.77716e-20 -4.97263e-02
1.67995e-20 -1.67995e-20 -4.71162e-02
2.45139e-20 -1.52441e-20 -4.28710e-02
3.12628e-20 -1.32140e-20 -3.71642e-02
3.64563e-20 -1.08436e-20 -3.02714e-02
3.93073e-20 -8.30721e-21 -2.26035e-02
3.87158e-20 -5.79335e-21 -1.47519e-02
3.32680e-20 -3.47865e-21 -7.54449e-03
2.11191e-20 -1.52927e-21 -2.11762e-03
0.00000e+00 0.00000e+00 0.00000e+00
0.00000e+00 0.00000e+00 0.00000e+00
-2.21747e-20 -7.80534e-22 -2.22473e-03
-3.49975e-20 -1.76823e-21 -7.93318e-03
-4.08015e-20 -2.93965e-21 -1.55264e-02
-4.14711e-20 -4.21072e-21 -2.38096e-02
-3.85083e-20 -5.49773e-21 -3.19081e-02
-3.30409e-20 -6.69991e-21 -3.91949e-02
-2.59276e-20 -7.73430e-21 -4.52324e-02
-1.77716e-20 -8.52462e-21 -4.97263e-02
-9.02181e-21 -9.02181e-21 -5.24905e-02
-6.56298e-33 -9.18991e-21 -5.34227e-02
9.02181e-21 -9.02181e-21 -5.24905e-02
1.77716e-20 -8.52462e-21 -4.97263e-02
2.59276e-20 -7.73430e-21 -4.52324e-02
3.30409e-20 -6.69991e-21 -3.91949e-02
3.85083e-20 -5.49773e-21 -3.19081e-02
4.14711e-20 -4.21072e-21 -2.38096e-02
4.08015e-20 -2.93965e-21 -1.55264e-02
3.49975e-20 -1.76823e-21 -7.93318e-03
2.21747e-20 -7.80534e-22 -2.22473e-03
0.00000e+00 0.00000e+00 0.00000e+00
0.00000e+00 0.00000e+00 0.00000e+00
-2.25277e-20 -7.10512e-34 -2.26063e-03
-3.55834e-20 -1.74042e-33 -8.06360e-03
-4.15025e-20 -3.91535e-33 -1.57866e-02
-4.22086e-20 -5.47729e-33 -2.42153e-02
-3.92003e-20 -4.87073e-33 -3.24591e-02
-3.36492e-20 -7.44442e-33 -3.98790e-02
-2.64053e-20 -8.53385e-33 -4.60284e-02
-1.81048e-20 -5.22730e-33 -5.06064e-02
-9.18991e-21 -1.85744e-33 -5.34227e-02
-7.45696e-33 -5.33448e-34 -5.43725e-02
9.18991e-21 -1.39378e-33 -5.34227e-02
1.81048e-20 1.21543e-33 -5.06064e-02
2.64053e-20 -2.33358e-33 -4.60284e-02
3.36492e-20 -3.51030e-33 -3.98790e-02
3.92003e-20 -3.36558e-33 -3.24591e-02
4.22086e-20 -4.51544e-33 -2.42153e-02
4.15025e-20 -2.47114e-33 -1.57866e-02
3.55834e-20 -1.83935e-33 -8.06360e-03
2.25277e-20 -6.77557e-34 -2.26063e-03
0.00000e+00 0.00000e+00 0.00000e+00
0.00000e+00 0.00000e+00 0.00000e+00
-2.21747e-20 7.80534e-22 -2.22473e-03
-3.49975e-20 1.76823e-21 -7.93318e-03
-4.08015e-20 2.93965e-21 -1.55264e-02
-4.14711e-20 4.21072e-21 -2.38096e-02
-3.85083e-20 5.49773e-21 -3.19081e-02
-3.30409e-20 6.69991e-21 -3.91949e-02
-2.59276e-20 7.73430e-21 -4.52324e-02
-1.77716e-20 8.52462e-21 -4.97263e-02
-9.02181e-21 9.02181e-21 -5.24905e-02
-6.98527e-33 9.18991e-21 -5.34227e-02
9.02181e-21 9.02181e-21 -5.24905e-02
1.77716e-20 8.52462e-21 -4.97263e-02
2.59276e-20 7.73430e-21 -4.52324e-02
3.30409e-20 6.69991e-21 -3.91949e-02
3.85083e-20 5.49773e-21 -3.19081e-02
4.14711e-20 4.21072e-21 -2.38096e-02
4.08015e-20 2.93965e-21 -1.55264e-02
3.49975e-20 1.76823e-21 -7.93318e-03
2.21747e-20 7.80534e-22 -2.22473e-03
0.00000e+00 0.00000e+00 0.00000e+00
0.00000e+00 0.00000e+00 0.00000e+00
-2.11191e-20 1.52927e-21 -2.11762e-03
-3.32680e-20 3.47865e-21 -7.54449e-03
-3.87158e-20 5.79335e-21 -1.47519e-02
-3.93073e-20 8.30721e-21 -2.26035e-02
-3.64563e-20 1.08436e-20 -3.02714e-02
-3.12628e-20 1.32140e-20 -3.71642e-02
-2.45139e-20 1.52441e-20 -4.28710e-02
-1.67995e-20 1.67995e-20 -4.71162e-02
-8.52462e-21 1.77716e-20 -4.97263e-02
-6.31671e-33 1.81048e-20 -5.06064e-02
8.52462e-21 1.77716e-20 -4.97263e-02
1.67995e-20 1.67995e-20 -4.71162e-02
2.45139e-20 1.52441e-20 -4.28710e-02
3.12628e-20 1.32140e-20 -3.71642e-02
3.64563e-20 1.08436e-20 -3.02714e-02
3.93073e-20 8.30721e-21 -2.26035e-02
3.87158e-20 5.79335e-21 -1.47519e-02
3.32680e-20 3.47865e-21 -7.54449e-03
2.11191e-20 1.52927e-21 -2.11762e-03
0.00000e+00 0.00000e+00 0.00000e+00
0.00000e+00 0.00000e+00 0.00000e+00
-1.93950e-20 2.21365e-21 -1.94122e-03
-3.04492e-20 5.06443e-21 -6.90605e-03
-3.53528e-20 8.46427e-21 -1.34831e-02
-3.58150e-20 1.21462e-20 -2.06323e-02
-3.31751e-20 1.58580e-20 -2.76012e-02
-2.84097e-20 1.93069e-20 -3.38558e-02
-2.22628e-20 2.22628e-20 -3.90276e-02
-1.52441e-20 2.45139e-20 -4.28710e-02
-7.73430e-21 2.59276e-20 -4.52324e-02
-4.94109e-34 2.64053e-20 -4.60284e-02
7.73430e-21 2.59276e-20 -4.52324e-02
1.52441e-20 2.45139e-20 -4.28710e-02
2.22628e-20 2.22628e-20 -3.90276e-02
2.84097e-20 1.93069e-20 -3.38558e-02
3.31751e-20 1.58580e-20 -2.76012e-02
3.58150e-20 1.21462e-20 -2.06323e-02
3.53528e-20 8.46427e-21 -1.34831e-02
3.04492e-20 5.06443e-21 -6.90605e-03
1.93950e-20 2.21365e-21 -1.94122e-03
0.00000e+00 0.00000e+00 0.00000e+00
0.00000e+00 0.00000e+00 0.00000e+00
-1.70489e-20 2.79407e-21 -1.69964e-03
-2.66665e-20 6.44865e-21 -6.03511e-03
-3.08593e-20 1.08164e-20 -1.17593e-02
-3.12010e-20 1.55440e-20 -1.79634e-02
-2.88405e-20 2.02778e-20 -2.39956e-02
-2.46711e-20 2.46711e-20 -2.93975e-02
-1.93069e-20 2.84097e-20 -3.38558e-02
-1.32140e-20 3.12628e-20 -3.71642e-02
-6.69991e-21 3.30409e-20 -3.91949e-02
-2.20053e-34 3.36492e-20 -3.98790e-02
6.69991e-21 3.30409e-20 -3.91949e-02
1.32140e-20 3.12628e-20 -3.71642e-02
1.93069e-20 2.84097e-20 -3.38558e-02
2.46711e-20 2.46711e-20 -2.93975e-02
2.88405e-20 2.02778e-20 -2.39956e-02
3.12010e-20 1.55440e-20 -1.79634e-02
3.08593e-20 1.08164e-20 -1.17593e-02
2.66665e-20 6.44865e-21 -6.03511e-03
1.70489e-20 2.79407e-21 -1.69964e-03
0.00000e+00 0.00000e+00 0.00000e+00
0.00000e+00 0.00000e+00 0.00000e+00
-1.41822e-20 3.22891e-21 -1.40042e-03
-2.20921e-20 7.52052e-21 -4.96252e-03
-2.55098e-20 1.26734e-20 -9.64849e-03
-2.57258e-20 1.82145e-20 -1.47101e-02
-2.37496e-20 2.37496e-20 -1.96156e-02
-2.02778e-20 2.88405e-20 -2.39956e-02
-1.58580e-20 3.31751e-20 -2.76012e-02
-1.08436e-20 3.64563e-20 -3.02714e-02
-5.49773e-21 3.85083e-20 -3.19081e-02
1.55872e-33 3.92003e-20 -3.24591e-02
5.49773e-21 3.85083e-20 -3.19081e-02
1.08436e-20 3.64563e-20 -3.02714e-02
1.58580e-20 3.31751e-20 -2.76012e-02
2.02778e-20 2.88405e-20 -2.39956e-02
2.37496e-20 2.37496e-20 -1.96156e-02
2.57258e-20 1.82145e-20 -1.47101e-02
2.55098e-20 1.26734e-20 -9.64849e-03
2.20921e-20 7.52052e-21 -4.96252e-03
1.41822e-20 3.22891e-21 -1.40042e-03
0.00000e+00 0.00000e+00 0.00000e+00
0.00000e+00 0.00000e+00 0.00000e+00
-1.09252e-20 3.45570e-21 -1.05715e-03
-1.70148e-20 8.13881e-21 -3.74115e-03
-1.96145e-20 1.37530e-20 -7.26177e-03
-1.97752e-20 1.97752e-20 -1.10517e-02
-1.82145e-20 2.57258e-20 -1.47101e-02
-1.55440e-20 3.12010e-20 -1.79634e-02
-1.21462e-20 3.58150e-20 -2.06323e-02
-8.30721e-21 3.93073e-20 -2.26035e-02
-4.21072e-21 4.14711e-20 -2.38096e-02
1.44940e-33 4.22086e-20 -2.42153e-02
4.21072e-21 4.14711e-20 -2.38096e-02
8.30721e-21 3.93073e-20 -2.26035e-02
1.21462e-20 3.58150e-20 -2.06323e-02
1.55440e-20 3.12010e-20 -1.79634e-02
1.82145e-20 2.57258e-20 -1.47101e-02
1.97752e-20 1.97752e-20 -1.10517e-02
1.96145e-20 1.37530e-20 -7.26177e-03
1.70148e-20 8.13881e-21 -3.74115e-03
1.09252e-20 3.45570e-21 -1.05715e-03
0.00000e+00 0.00000e+00 0.00000e+00
0.00000e+00 0.00000e+00 0.00000e+00
-7.53324e-21 3.40390e-21 -6.93253e-04
-1.18008e-20 8.07261e-21 -2.45790e-03
-1.36759e-20 1.36759e-20 -4.77525e-03
-1.37530e-20 1.96145e-20 -7.26177e-03
-1.26734e-20 2.55098e-20 -9.64849e-03
-1.08164e-20 3.08593e-20 -1.17593e-02
-8.46427e-21 3.53528e-20 -1.34831e-02
-5.79335e-21 3.87158e-20 -1.47519e-02
-2.93965e-21 4.08015e-20 -1.55264e-02
1.70993e-33 4.15025e-20 -1.57866e-02
2.93965e-21 4.08015e-20 -1.55264e-02
5.79335e-21 3.87158e-20 -1.47519e-02
8.46427e-21 3.53528e-20 -1.34831e-02
1.08164e-20 3.08593e-20 -1.17593e-02
1.26734e-20 2.55098e-20 -9.64849e-03
1.37530e-20 1.96145e-20 -7.26177e-03
1.36759e-20 1.36759e-20 -4.77525e-03
1.18008e-20 8.07261e-21 -2.45790e-03
7.53324e-21 3.40390e-21 -6.93253e-04
0.00000e+00 0.00000e+00 0.00000e+00
0.00000e+00 0.00000e+00 0.00000e+00
-4.30693e-21 2.94950e-21 -3.48020e-04
-6.99031e-21 6.99031e-21 -1.25472e-03
-8.07261e-21 1.18008e-20 -2.45790e-03
-8.13881e-21 1.70148e-20 -3.74115e-03
-7.52052e-21 2.20921e-20 -4.96252e-03
-6.44865e-21 2.66665e-20 -6.03511e-03
-5.06443e-21 3.04492e-20 -6.90605e-03
-3.47865e-21 3.32680e-20 -7.54449e-03
-1.76823e-21 3.49975e-20 -7.93318e-03
9.52053e-34 3.55834e-20 -8.06360e-03
1.76823e-21 3.49975e-20 -7.93318e-03
3.47865e-21 3.32680e-20 -7.54449e-03
5.06443e-21 3.04492e-20 -6.90605e-03
6.44865e-21 2.66665e-20 -6.03511e-03
7.52052e-21 2.20921e-20 -4.96252e-03
8.13881e-21 1.70148e-20 -3.74115e-03
8.07261e-21 1.18008e-20 -2.45790e-03
6.99031e-21 6.99031e-21 -1.25472e-03
4.30693e-21 2.94950e-21 -3.48020e-04
0.00000e+00 0.00000e+00 0.00000e+00
0.00000e+00 0.00000e+00 0.00000e+00
-1.86370e-21 1.86370e-21 -9.22329e-05
-2.94950e-21 4.30693e-21 -3.48020e-04
-3.40390e-21 7.53324e-21 -6.93253e-04
-3.45570e-21 1.09252e-20 -1.05715e-03
-3.22891e-21 1.41822e-20 -1.40042e-03
-2.79407e-21 1.70489e-20 -1.69964e-03
-2.21365e-21 1.93950e-20 -1.94122e-03
-1.52927e-21 2.11191e-20 -2.11762e-03
-7.80534e-22 2.21747e-20 -2.22473e-03
5.19387e-34 2.25277e-20 -2.26063e-03
7.80534e-22 2.21747e-20 -2.22473e-03
1.52927e-21 2.11191e-20 -2.11762e-03
2.21365e-21 1.93950e-20 -1.94122e-03
2.79407e-21 1.70489e-20 -1.69964e-03
3.22891e-21 1.41822e-20 -1.40042e-03
3.45570e-21 1.09252e-20 -1.05715e-03
3.40390e-21 7.53324e-21 -6.93253e-04
2.94950e-21 4.30693e-21 -3.48020e-04
1.86370e-21 1.86370e-21 -9.22329e-05
0.00000e+00 0.00000e+00 0.00000e+00
0.00000e+00 0.00000e+00 0.00000e+00
0.00000e+00 0.00000e+00 0.00000e+00
0.00000e+00 0.00000e+00 0.00000e+00
0.00000e+00 0.00000e+00 0.00000e+00
0.00000e+00 0.00000e+00 0.00000e+00
0.00000e+00 0.00000e+00 0.00000e+00
0.00000e+00 0.00000e+00 0.00000e+00
0.00000e+00 0.00000e+00 0.00000e+00
0.00000e+00 0.00000e+00 0.00000e+00
0.00000e+00 0.00000e+00 0.00000e+00
0.00000e+00 0.00000e+00 0.00000e+00
0.00000e+00 0.00000e+00 0.00000e+00
0.00000e+00 0.00000e+00 0.00000e+00
0.00000e+00 0.00000e+00 0.00000e+00
0.00000e+00 0.00000e+00 0.00000e+00
0.00000e+00 0.00000e+00 0.00000e+00
0.00000e+00 0.00000e+00 0.00000e+00
0.00000e+00 0.00000e+00 0.00000e+00
0.00000e+00 0.00000e+00 0.00000e+00
0.00000e+00 0.00000e+00 0.00000e+00
0.00000e+00 0.00000e+00 0.00000e+00
</DataArray>
<DataArray Name="angDisp_FEM" type="Float32" NumberOfComponents="3" format="ascii">
0.00000e+00 0.00000e+00 0.00000e+00
0.00000e+00 0.00000e+00 0.00000e+00
0.00000e+00 0.00000e+00 0.00000e+00
0.00000e+00 0.00000e+00 0.00000e+00
0.00000e+00 0.00000e+00 0.00000e+00
0.00000e+00 0.00000e+00 0.00000e+00
0.00000e+00 0.00000e+00 0.00000e+00
0.00000e+00 0.00000e+00 0.00000e+00
0.00000e+00 0.00000e+00 0.00000e+00
0.00000e+00 0.00000e+00 0.00000e+00
0.00000e+00 0.00000e+00 0.00000e+00
0.00000e+00 0.00000e+00 0.00000e+00
0.00000e+00 0.00000e+00 0.00000e+00
0.00000e+00 0.00000e+00 0.00000e+00
0.00000e+00 0.00000e+00 0.00000e+00
0.00000e+00 0.00000e+00 0.00000e+00
0.00000e+00 0.00000e+00 0.00000e+00
0.00000e+00 0.00000e+00 0.00000e+00
0.00000e+00 0.00000e+00 0.00000e+00
0.00000e+00 0.00000e+00 0.00000e+00
0.00000e+00 0.00000e+00 0.00000e+00
0.00000e+00 0.00000e+00 0.00000e+00
3.83175e-03 -3.83175e-03 1.84976e-34
1.38282e-02 -6.65827e-03 -6.60383e-21
2.74347e-02 -7.55520e-03 -7.27190e-21
4.17822e-02 -7.44113e-03 -7.44930e-21
5.53591e-02 -6.71707e-03 -6.98406e-21
6.71976e-02 -5.62940e-03 -6.17922e-21
7.67693e-02 -4.34225e-03 -4.97129e-21
8.37595e-02 -2.94026e-03 -3.49495e-21
8.80069e-02 -1.48234e-03 -1.79773e-21
8.94300e-02 -4.94134e-16 4.68017e-34
8.80069e-02 1.48234e-03 1.79773e-21
8.37595e-02 2.94026e-03 3.49495e-21
7.67693e-02 4.34225e-03 4.97129e-21
6.71976e-02 5.62940e-03 6.17922e-21
5.53591e-02 6.71707e-03 6.98406e-21
4.17822e-02 7.44113e-03 7.44930e-21
2.74347e-02 7.55520e-03 7.27190e-21
1.38282e-02 6.65827e-03 6.60383e-21
3.83175e-03 3.83175e-03 -7.18453e-34
0.00000e+00 0.00000e+00 0.00000e+00
0.00000e+00 0.00000e+00 0.00000e+00
6.65827e-03 -1.38282e-02 6.60383e-21
2.23161e-02 -2.23161e-02 1.77610e-33
4.29848e-02 -2.57095e-02 -1.23772e-21
6.51814e-02 -2.55676e-02 -2.97661e-23
8.66247e-02 -2.32695e-02 1.03601e-21
1.05591e-01 -1.96376e-02 1.67409e-21
1.21118e-01 -1.52144e-02 1.75428e-21
1.32544e-01 -1.03386e-02 1.42126e-21
1.39528e-01 -5.22092e-03 7.81261e-22
1.41872e-01 5.13385e-15 -6.65099e-33
1.39528e-01 5.22092e-03 -7.81261e-22
1.32544e-01 1.03386e-02 -1.42126e-21
1.21118e-01 1.52144e-02 -1.75428e-21
1.05591e-01 1.96376e-02 -1.67409e-21
8.66247e-02 2.32695e-02 -1.03601e-21
6.51814e-02 2.55676e-02 2.97661e-23
4.29848e-02 2.57095e-02 1.23772e-21
2.23161e-02 2.23161e-02 -9.58122e-34
6.65827e-03 1.38282e-02 -6.60383e-21
0.00000e+00 0.00000e+00 0.00000e+00
0.00000e+00 0.00000e+00 0.00000e+00
7.55520e-03 -2.74347e-02 7.27190e-21
2.57095e-02 -4.29848e-02 1.23772e-21
4.96300e-02 -4.96300e-02 1.98348e-33
7.53380e-02 -4.98114e-02 9.87273e-22
1.00435e-01 -4.56786e-02 2.75422e-21
1.22875e-01 -3.87957e-02 3.73796e-21
1.41398e-01 -3.02018e-02 3.87407e-21
1.55125e-01 -2.05905e-02 3.10099e-21
1.63548e-01 -1.04187e-02 1.72103e-21
1.66383e-01 9.57878e-16 -1.38792e-33
1.63548e-01 1.04187e-02 -1.72103e-21
1.55125e-01 2.05905e-02 -3.10099e-21
1.41398e-01 3.02018e-02 -3.87407e-21
1.22875e-01 3.87957e-02 -3.73796e-21
1.00435e-01 4.56786e-02 -2.75422e-21
7.53380e-02 4.98114e-02 -9.87273e-22
4.96300e-02 4.96300e-02 9.60254e-34
2.57095e-02 4.29848e-02 -1.23772e-21
7.55520e-03 2.74347e-02 -7.27190e-21
0.00000e+00 0.00000e+00 0.00000e+00
0.00000e+00 0.00000e+00 0.00000e+00
7.44113e-03 -4.17822e-02 7.44930e-21
2.55676e-02 -6.51814e-02 2.97661e-23
4.98114e-02 -7.53380e-02 -9.87273e-22
7.60300e-02 -7.60300e-02 2.35926e-33
1.01746e-01 -7.01433e-02 1.74785e-21
1.24899e-01 -5.98779e-02 3.13868e-21
1.44128e-01 -4.68023e-02 3.56247e-21
1.58445e-01 -3.19996e-02 3.02921e-21
1.67260e-01 -1.62190e-02 1.71642e-21
1.70231e-01 1.44157e-14 -4.75491e-33
1.67260e-01 1.62190e-02 -1.71642e-21
1.58445e-01 3.19996e-02 -3.02921e-21
1.44128e-01 4.68023e-02 -3.56247e-21
1.24899e-01 5.98779e-02 -3.13868e-21
1.01746e-01 7.01433e-02 -1.74785e-21
7.60300e-02 7.60300e-02 4.20079e-33
4.98114e-02 7.53380e-02 9.87273e-22
2.55676e-02 6.51814e-02 -2.97661e-23
7.44113e-03 4.17822e-02 -7.44930e-21
0.00000e+00 0.00000e+00 0.00000e+00
0.00000e+00 0.00000e+00 0.00000e+00
6.71707e-03 -5.53591e-02 6.98406e-21
2.32695e-02 -8.66247e-02 -1.03601e-21
4.56786e-02 -1.00435e-01 -2.75422e-21
7.01433e-02 -1.01746e-01 -1.74785e-21
9.42682e-02 -9.42682e-02 1.64607e-33
1.16086e-01 -8.07836e-02 1.49189e-21
1.34282e-01 -6.33389e-02 2.27519e-21
1.47878e-01 -4.34039e-02 2.13198e-21
1.56269e-01 -2.20293e-02 1.27382e-21
1.59101e-01 1.51188e-15 -2.29795e-33
1.56269e-01 2.20293e-02 -1.27382e-21
1.47878e-01 4.34039e-02 -2.13198e-21
1.34282e-01 6.33389e-02 -2.27519e-21
1.16086e-01 8.07836e-02 -1.49189e-21
9.42682e-02 9.42682e-02 4.84206e-33
7.01433e-02 1.01746e-01 1.74785e-21
4.56786e-02 1.00435e-01 2.75422e-21
2.32695e-02 8.66247e-02 1.03601e-21
6.71707e-03 5.53591e-02 -6.98406e-21
0.00000e+00 0.00000e+00 0.00000e+00
0.00000e+00 0.00000e+00 0.00000e+00
5.62940e-03 -6.71976e-02 6.17922e-21
1.96376e-02 -1.05591e-01 -1.67409e-21
3.87957e-02 -1.22875e-01 -3.73796e-21
5.98779e-02 -1.24899e-01 -3.13868e-21
8.07836e-02 -1.16086e-01 -1.49189e-21
9.97654e-02 -9.97654e-02 1.70478e-33
1.15643e-01 -7.84054e-02 9.35019e-22
1.27536e-01 -5.38208e-02 1.15373e-21
1.34888e-01 -2.73450e-02 7.48944e-22
1.37372e-01 1.06377e-14 -6.56858e-33
1.34888e-01 2.73450e-02 -7.48944e-22
1.27536e-01 5.38208e-02 -1.15373e-21
1.15643e-01 7.84054e-02 -9.35019e-22
9.97654e-02 9.97654e-02 2.54584e-33
8.07836e-02 1.16086e-01 1.49189e-21
5.98779e-02 1.24899e-01 3.13868e-21
3.87957e-02 1.22875e-01 3.73796e-21
1.96376e-02 1.05591e-01 1.67409e-21
5.62940e-03 6.71976e-02 -6.17922e-21
0.00000e+00 0.00000e+00 0.00000e+00
0.00000e+00 0.00000e+00 0.00000e+00
4.34225e-03 -7.67693e-02 4.97129e-21
1.52144e-02 -1.21118e-01 -1.75428e-21
3.02018e-02 -1.41398e-01 -3.87407e-21
4.68023e-02 -1.44128e-01 -3.56247e-21
6.33389e-02 -1.34282e-01 -2.27519e-21
7.84054e-02 -1.15643e-01 -9.35019e-22
9.10379e-02 -9.10379e-02 8.48049e-33
1.00517e-01 -6.25705e-02 3.96645e-22
1.06383e-01 -3.18147e-02 3.33276e-22
1.08366e-01 -2.83367e-14 -1.05925e-32
1.06383e-01 3.18147e-02 -3.33276e-22
1.00517e-01 6.25705e-02 -3.96645e-22
9.10379e-02 9.10379e-02 -5.23329e-33
7.84054e-02 1.15643e-01 9.35019e-22
6.33389e-02 1.34282e-01 2.27519e-21
4.68023e-02 1.44128e-01 3.56247e-21
3.02018e-02 1.41398e-01 3.87407e-21
1.52144e-02 1.21118e-01 1.75428e-21
4.34225e-03 7.67693e-02 -4.97129e-21
0.00000e+00 0.00000e+00 0.00000e+00
0.00000e+00 0.00000e+00 0.00000e+00
2.94026e-03 -8.37595e-02 3.49495e-21
1.03386e-02 -1.32544e-01 -1.42126e-21
2.05905e-02 -1.55125e-01 -3.10099e-21
3.19996e-02 -1.58445e-01 -3.02921e-21
4.34039e-02 -1.47878e-01 -2.13198e-21
5.38208e-02 -1.27536e-01 -1.15373e-21
6.25705e-02 -1.00517e-01 -3.96645e-22
6.91440e-02 -6.91440e-02 2.03334e-32
7.32155e-02 -3.51754e-02 8.88330e-23
7.45925e-02 -2.51345e-14 2.54193e-32
7.32155e-02 3.51754e-02 -8.88330e-23
6.91440e-02 6.91440e-02 4.30907e-33
6.25705e-02 1.00517e-01 3.96645e-22
5.38208e-02 1.27536e-01 1.15373e-21
4.34039e-02 1.47878e-01 2.13198e-21
3.19996e-02 1.58445e-01 3.02921e-21
2.05905e-02 1.55125e-01 3.10099e-21
1.03386e-02 1.32544e-01 1.42126e-21
2.94026e-03 8.37595e-02 -3.49495e-21
0.00000e+00 0.00000e+00 0.00000e+00
0.00000e+00 0.00000e+00 0.00000e+00
1.48234e-03 -8.80069e-02 1.79773e-21
5.22092e-03 -1.39528e-01 -7.81261e-22
1.04187e-02 -1.63548e-01 -1.72103e-21
1.62190e-02 -1.67260e-01 -1.71642e-21
2.20293e-02 -1.56269e-01 -1.27382e-21
2.73450e-02 -1.34888e-01 -7.48944e-22
3.18147e-02 -1.06383e-01 -3.33276e-22
3.51754e-02 -7.32155e-02 -8.88330e-23
3.72579e-02 -3.72579e-02 6.41650e-33
3.79623e-02 -3.24895e-14 -5.12268e-33
3.72579e-02 3.72579e-02 1.60314e-32
3.51754e-02 7.32155e-02 8.88330e-23
3.18147e-02 1.06383e-01 3.33276e-22
2.73450e-02 1.34888e-01 7.48944e-22
2.20293e-02 1.56269e-01 1.27382e-21
1.62190e-02 1.67260e-01 1.71642e-21
1.04187e-02 1.63548e-01 1.72103e-21
5.22092e-03 1.39528e-01 7.81261e-22
1.48234e-03 8.80069e-02 -1.79773e-21
0.00000e+00 0.00000e+00 0.00000e+00
0.00000e+00 0.00000e+00 0.00000e+00
2.16583e-15 -8.94300e-02 -3.13098e-34
6.03240e-15 -1.41872e-01 4.98690e-33
1.61660e-14 -1.66383e-01 2.76765e-33
2.17793e-14 -1.70231e-01 -5.33519e-33
2.11591e-14 -1.59101e-01 -4.82266e-33
3.05623e-14 -1.37372e-01 1.14877e-32
3.58676e-14 -1.08366e-01 -7.17916e-33
2.08948e-14 -7.45925e-02 -8.64350e-33
7.31560e-15 -3.79623e-02 -4.91455e-33
-1.04712e-16 -3.38791e-14 -4.45631e-33
6.29550e-15 3.79623e-02 -1.56039e-32
-5.53829e-15 7.45925e-02 -6.12585e-34
1.00049e-14 1.08366e-01 1.10601e-32
1.46822e-14 1.37372e-01 2.83564e-33
1.45060e-14 1.59101e-01 5.22831e-33
1.91163e-14 1.70231e-01 4.30700e-33
1.01096e-14 1.66383e-01 -8.58793e-34
7.30371e-15 1.41872e-01 2.05839e-33
1.76410e-15 8.94300e-02 3.66071e-34
0.00000e+00 0.00000e+00 0.00000e+00
0.00000e+00 0.00000e+00 0.00000e+00
-1.48234e-03 -8.80069e-02 -1.79773e-21
-5.22092e-03 -1.39528e-01 7.81261e-22
-1.04187e-02 -1.63548e-01 1.72103e-21
-1.62190e-02 -1.67260e-01 1.71642e-21
-2.20293e-02 -1.56269e-01 1.27382e-21
-2.73450e-02 -1.34888e-01 7.48944e-22
-3.18147e-02 -1.06383e-01 3.33276e-22
-3.51754e-02 -7.32155e-02 8.88330e-23
-3.72579e-02 -3.72579e-02 1.21815e-32
-3.79623e-02 -3.08015e-14 -1.72210e-32
-3.72579e-02 3.72579e-02 -3.19584e-33
-3.51754e-02 7.32155e-02 -8.88330e-23
-3.18147e-02 1.06383e-01 -3.33276e-22
-2.73450e-02 1.34888e-01 -7.48944e-22
-2.20293e-02 1.56269e-01 -1.27382e-21
-1.62190e-02 1.67260e-01 -1.71642e-21
-1.04187e-02 1.63548e-01 -1.72103e-21
-5.22092e-03 1.39528e-01 -7.81261e-22
-1.48234e-03 8.80069e-02 1.79773e-21
0.00000e+00 0.00000e+00 0.00000e+00
0.00000e+00 0.00000e+00 0.00000e+00
-2.94026e-03 -8.37595e-02 -3.49495e-21
-1.03386e-02 -1.32544e-01 1.42126e-21
-2.05905e-02 -1.55125e-01 3.10099e-21
-3.19996e-02 -1.58445e-01 3.02921e-21
-4.34039e-02 -1.47878e-01 2.13198e-21
-5.38208e-02 -1.27536e-01 1.15373e-21
-6.25705e-02 -1.00517e-01 3.96645e-22
-6.91440e-02 -6.91440e-02 3.86224e-33
-7.32155e-02 -3.51754e-02 -8.88330e-23
-7.45925e-02 -2.45461e-14 8.58763e-33
-7.32155e-02 3.51754e-02 8.88330e-23
-6.91440e-02 6.91440e-02 -7.84816e-33
-6.25705e-02 1.00517e-01 -3.96645e-22
-5.38208e-02 1.27536e-01 -1.15373e-21
-4.34039e-02 1.47878e-01 -2.13198e-21
-3.19996e-02 1.58445e-01 -3.02921e-21
-2.05905e-02 1.55125e-01 -3.10099e-21
-1.03386e-02 1.32544e-01 -1.42126e-21
-2.94026e-03 8.37595e-02 3.49495e-21
0.00000e+00 0.00000e+00 0.00000e+00
0.00000e+00 0.00000e+00 0.00000e+00
-4.34225e-03 -7.67693e-02 -4.97129e-21
-1.52144e-02 -1.21118e-01 1.75428e-21
-3.02018e-02 -1.41398e-01 3.87407e-21
-4.68023e-02 -1.44128e-01 3.56247e-21
-6.33389e-02 -1.34282e-01 2.27519e-21
-7.84054e-02 -1.15643e-01 9.35019e-22
-9.10379e-02 -9.10379e-02 3.86916e-33
-1.00517e-01 -6.25705e-02 -3.96645e-22
-1.06383e-01 -3.18147e-02 -3.33276e-22
-1.08366e-01 1.91794e-16 7.17392e-33
-1.06383e-01 3.18147e-02 3.33276e-22
-1.00517e-01 6.25705e-02 3.96645e-22
-9.10379e-02 9.10379e-02 -1.04403e-32
-7.84054e-02 1.15643e-01 -9.35019e-22
-6.33389e-02 1.34282e-01 -2.27519e-21
-4.68023e-02 1.44128e-01 -3.56247e-21
-3.02018e-02 1.41398e-01 -3.87407e-21
-1.52144e-02 1.21118e-01 -1.75428e-21
-4.34225e-03 7.67693e-02 4.97129e-21
0.00000e+00 0.00000e+00 0.00000e+00
0.00000e+00 0.00000e+00 0.00000e+00
-5.62940e-03 -6.71976e-02 -6.17922e-21
-1.96376e-02 -1.05591e-01 1.67409e-21
-3.87957e-02 -1.22875e-01 3.73796e-21
-5.98779e-02 -1.24899e-01 3.13868e-21
-8.07836e-02 -1.16086e-01 1.49189e-21
-9.97654e-02 -9.97654e-02 -8.04422e-33
-1.15643e-01 -7.84054e-02 -9.35019e-22
-1.27536e-01 -5.38208e-02 -1.15373e-21
-1.34888e-01 -2.73450e-02 -7.48944e-22
-1.37372e-01 2.46529e-15 3.17861e-33
-1.34888e-01 2.73450e-02 7.48944e-22
-1.27536e-01 5.38208e-02 1.15373e-21
-1.15643e-01 7.84054e-02 9.35019e-22
-9.97654e-02 9.97654e-02 -8.86981e-33
-8.07836e-02 1.16086e-01 -1.49189e-21
-5.98779e-02 1.24899e-01 -3.13868e-21
-3.87957e-02 1.22875e-01 -3.73796e-21
-1.96376e-02 1.05591e-01 -1.67409e-21
-5.62940e-03 6.71976e-02 6.17922e-21
0.00000e+00 0.00000e+00 0.00000e+00
0.00000e+00 0.00000e+00 0.00000e+00
-6.71707e-03 -5.53591e-02 -6.98406e-21
-2.32695e-02 -8.66247e-02 1.03601e-21
-4.56786e-02 -1.00435e-01 2.75422e-21
-7.01433e-02 -1.01746e-01 1.74785e-21
-9.42682e-02 -9.42682e-02 -2.79800e-33
-1.16086e-01 -8.07836e-02 -1.49189e-21
-1.34282e-01 -6.33389e-02 -2.27519e-21
-1.47878e-01 -4.34039e-02 -2.13198e-21
-1.56269e-01 -2.20293e-02 -1.27382e-21
-1.59101e-01 9.14745e-15 2.92130e-33
-1.56269e-01 2.20293e-02 1.27382e-21
-1.47878e-01 4.34039e-02 2.13198e-21
-1.34282e-01 6.33389e-02 2.27519e-21
-1.16086e-01 8.07836e-02 1.49189e-21
-9.42682e-02 9.42682e-02 -4.10464e-33
-7.01433e-02 1.01746e-01 -1.74785e-21
-4.56786e-02 1.00435e-01 -2.75422e-21
-2.32695e-02 8.66247e-02 -1.03601e-21
-6.71707e-03 5.53591e-02 6.98406e-21
0.00000e+00 0.00000e+00 0.00000e+00
0.00000e+00 0.00000e+00 0.00000e+00
-7.44113e-03 -4.17822e-02 -7.44930e-21
-2.55676e-02 -6.51814e-02 -2.97661e-23
-4.98114e-02 -7.53380e-02 9.87273e-22
-7.60300e-02 -7.60300e-02 -4.82473e-33
-1.01746e-01 -7.01433e-02 -1.74785e-21
-1.24899e-01 -5.98779e-02 -3.13868e-21
-1.44128e-01 -4.68023e-02 -3.56247e-21
-1.58445e-01 -3.19996e-02 -3.02921e-21
-1.67260e-01 -1.62190e-02 -1.71642e-21
-1.70231e-01 9.63685e-15 -5.14230e-34
-1.67260e-01 1.62190e-02 1.71642e-21
-1.58445e-01 3.19996e-02 3.02921e-21
-1.44128e-01 4.68023e-02 3.56247e-21
-1.24899e-01 5.98779e-02 3.13868e-21
-1.01746e-01 7.01433e-02 1.74785e-21
-7.60300e-02 7.60300e-02 -6.25927e-34
-4.98114e-02 7.53380e-02 -9.87273e-22
-2.55676e-02 6.51814e-02 2.97661e-23
-7.44113e-03 4.17822e-02 7.44930e-21
0.00000e+00 0.00000e+00 0.00000e+00
0.00000e+00 0.00000e+00 0.00000e+00
-7.55520e-03 -2.74347e-02 -7.27190e-21
-2.57095e-02 -4.29848e-02 -1.23772e-21
-4.96300e-02 -4.96300e-02 -4.53496e-33
-7.53380e-02 -4.98114e-02 -9.87273e-22
-1.00435e-01 -4.56786e-02 -2.75422e-21
-1.22875e-01 -3.87957e-02 -3.73796e-21
-1.41398e-01 -3.02018e-02 -3.87407e-21
-1.55125e-01 -2.05905e-02 -3.10099e-21
-1.63548e-01 -1.04187e-02 -1.72103e-21
-1.66383e-01 8.96576e-15 8.93977e-33
-1.63548e-01 1.04187e-02 1.72103e-21
-1.55125e-01 2.05905e-02 3.10099e-21
-1.41398e-01 3.02018e-02 3.87407e-21
-1.22875e-01 3.87957e-02 3.73796e-21
-1.00435e-01 4.56786e-02 2.75422e-21
-7.53380e-02 4.98114e-02 9.87273e-22
-4.96300e-02 4.96300e-02 2.63022e-34
-2.57095e-02 4.29848e-02 1.23772e-21
-7.55520e-03 2.74347e-02 7.27190e-21
0.00000e+00 0.00000e+00 0.00000e+00
0.00000e+00 0.00000e+00 0.00000e+00
-6.65827e-03 -1.38282e-02 -6.60383e-21
-2.23161e-02 -2.23161e-02 -2.34348e-33
-4.29848e-02 -2.57095e-02 1.23772e-21
-6.51814e-02 -2.55676e-02 2.97661e-23
-8.66247e-02 -2.32695e-02 -1.03601e-21
-1.05591e-01 -1.96376e-02 -1.67409e-21
-1.21118e-01 -1.52144e-02 -1.75428e-21
-1.32544e-01 -1.03386e-02 -1.42126e-21
-1.39528e-01 -5.22092e-03 -7.81261e-22
-1.41872e-01 4.24187e-15 3.70085e-33
-1.39528e-01 5.22092e-03 7.81261e-22
-1.32544e-01 1.03386e-02 1.42126e-21
-1.21118e-01 1.52144e-02 1.75428e-21
-1.05591e-01 1.96376e-02 1.67409e-21
-8.66247e-02 2.32695e-02 1.03601e-21
-6.51814e-02 2.55676e-02 -2.97661e-23
-4.29848e-02 2.57095e-02 -1.23772e-21
-2.23161e-02 2.23161e-02 -7.59840e-35
-6.65827e-03 1.38282e-02 6.60383e-21
0.00000e+00 0.00000e+00 0.00000e+00
0.00000e+00 0.00000e+00 0.00000e+00
-3.83175e-03 -3.83175e-03 -2.34723e-34
-1.38282e-02 -6.65827e-03 6.60383e-21
-2.74347e-02 -7.55520e-03 7.27190e-21
-4.17822e-02 -7.44113e-03 7.44930e-21
-5.53591e-02 -6.71707e-03 6.98406e-21
-6.71976e-02 -5.62940e-03 6.17922e-21
-7.67693e-02 -4.34225e-03 4.97129e-21
-8.37595e-02 -2.94026e-03 3.49495e-21
-8.80069e-02 -1.48234e-03 1.79773e-21
-8.94300e-02 1.52602e-15 3.10823e-33
-8.80069e-02 1.48234e-03 -1.79773e-21
-8.37595e-02 2.94026e-03 -3.49495e-21
-7.67693e-02 4.34225e-03 -4.97129e-21
-6.71976e-02 5.62940e-03 -6.17922e-21
-5.53591e-02 6.71707e-03 -6.98406e-21
-4.17822e-02 7.44113e-03 -7.44930e-21
-2.74347e-02 7.55520e-03 -7.27190e-21
-1.38282e-02 6.65827e-03 -6.60383e-21
-3.83175e-03 3.83175e-03 1.03915e-34
0.00000e+00 0.00000e+00 0.00000e+00
0.00000e+00 0.00000e+00 0.00000e+00
0.00000e+00 0.00000e+00 0.00000e+00
0.00000e+00 0.00000e+00 0.00000e+00
0.00000e+00 0.00000e+00 0.00000e+00
0.00000e+00 0.00000e+00 0.00000e+00
0.00000e+00 0.00000e+00 0.00000e+00
0.00000e+00 0.00000e+00 0.00000e+00
0.00000e+00 0.00000e+00 0.00000e+00
0.00000e+00 0.00000e+00 0.00000e+00
0.00000e+00 0.00000e+00 0.00000e+00
0.00000e+00 0.00000e+00 0.00000e+00
0.00000e+00 0.00000e+00 0.00000e+00
0.00000e+00 0.00000e+00 0.00000e+00
0.00000e+00 0.00000e+00 0.00000e+00
0.00000e+00 0.00000e+00 0.00000e+00
0.00000e+00 0.00000e+00 0.00000e+00
0.00000e+00 0.00000e+00 0.00000e+00
0.00000e+00 0.00000e+00 0.00000e+00
0.00000e+00 0.00000e+00 0.00000e+00
0.00000e+00 0.00000e+00 0.00000e+00
0.00000e+00 0.00000e+00 0.00000e+00
</DataArray>
<DataArray Name="Disp_error" type="Float32" NumberOfComponents="3" format="ascii">
0.00000e+00 0.00000e+00 0.00000e+00
0.00000e+00 0.00000e+00 0.00000e+00
0.00000e+00 0.00000e+00 0.00000e+00
0.00000e+00 0.00000e+00 0.00000e+00
0.00000e+00 0.00000e+00 0.00000e+00
0.00000e+00 0.00000e+00 0.00000e+00
0.00000e+00 0.00000e+00 0.00000e+00
0.00000e+00 0.00000e+00 0.00000e+00
0.00000e+00 0.00000e+00 0.00000e+00
0.00000e+00 0.00000e+00 0.00000e+00
0.00000e+00 0.00000e+00 0.00000e+00
0.00000e+00 0.00000e+00 0.00000e+00
0.00000e+00 0.00000e+00 0.00000e+00
0.00000e+00 0.00000e+00 0.00000e+00
0.00000e+00 0.00000e+00 0.00000e+00
0.00000e+00 0.00000e+00 0.00000e+00
0.00000e+00 0.00000e+00 0.00000e+00
0.00000e+00 0.00000e+00 0.00000e+00
0.00000e+00 0.00000e+00 0.00000e+00
0.00000e+00 0.00000e+00 0.00000e+00
0.00000e+00 0.00000e+00 0.00000e+00
0.00000e+00 0.00000e+00 0.00000e+00
1.76496e-17 1.14801e-16 1.70243e-07
7.92124e-17 6.97651e-17 3.81726e-07
6.71646e-18 1.44219e-16 2.04542e-07
1.75014e-16 1.02922e-16 1.81608e-08
1.10218e-16 8.15168e-17 7.83475e-08
8.62532e-17 2.77653e-17 1.36439e-07
1.64925e-16 2.73573e-16 3.48664e-07
1.41713e-17 3.26827e-17 2.93599e-07
1.37008e-16 3.37197e-16 5.94417e-07
6.06234e-17 1.78352e-16 5.96512e-07
2.38479e-16 3.76260e-16 2.56114e-09
1.21985e-16 1.96812e-16 1.24332e-07
2.84988e-16 3.78575e-16 1.37486e-07
2.60037e-16 2.02166e-16 5.44474e-07
2.56007e-16 2.88441e-16 5.45988e-07
2.67041e-16 2.62864e-16 1.57859e-07
1.83586e-16 2.34873e-16 1.51631e-07
1.73392e-16 1.30617e-16 2.37458e-07
4.82569e-17 1.63870e-16 1.24928e-07
0.00000e+00 0.00000e+00 0.00000e+00
0.00000e+00 0.00000e+00 0.00000e+00
8.96004e-17 8.37149e-17 4.96773e-07
1.06751e-16 2.63444e-16 7.42613e-07
2.84934e-16 1.25755e-16 4.96861e-07
2.78878e-16 1.26301e-16 3.17581e-07
2.46611e-16 1.89095e-18 1.45286e-07
3.59698e-16 2.82023e-16 3.03611e-07
1.05428e-16 1.47846e-16 7.59494e-07
3.65042e-16 5.62697e-16 1.38488e-06
1.57760e-16 3.04939e-16 1.38395e-06
5.12186e-16 8.08225e-16 5.18747e-07
3.95883e-16 3.89656e-16 1.35414e-06
7.23164e-16 7.85108e-16 1.29687e-06
5.21338e-16 4.96532e-16 1.06310e-06
6.14966e-16 6.58626e-16 9.29926e-07
6.32036e-16 5.27380e-16 9.63919e-07
5.04755e-16 4.77372e-16 1.08196e-06
4.74821e-16 4.79718e-16 7.42730e-08
3.25143e-16 3.13729e-16 3.28640e-07
2.42710e-16 2.06713e-16 1.00699e-08
0.00000e+00 0.00000e+00 0.00000e+00
0.00000e+00 0.00000e+00 0.00000e+00
8.71212e-17 1.95097e-16 5.78002e-08
2.18206e-16 1.67834e-16 1.30152e-07
4.24322e-16 2.70323e-16 2.79397e-07
3.81167e-16 5.50355e-17 1.50781e-06
5.69703e-16 5.20882e-17 1.23028e-06
2.21812e-16 2.27083e-16 2.36928e-06
7.70109e-16 6.43443e-16 2.22307e-06
1.93223e-16 4.48166e-16 2.56300e-06
8.69094e-16 1.01495e-15 2.26870e-06
4.91771e-16 6.18333e-16 3.03797e-06
9.95531e-16 1.26961e-15 1.43331e-06
7.74037e-16 7.19357e-16 2.14484e-06
1.02603e-15 1.06881e-15 1.72853e-06
8.80878e-16 8.50306e-16 2.37767e-06
8.56356e-16 8.30722e-16 2.28640e-06
7.72465e-16 7.57909e-16 1.51061e-06
5.30921e-16 5.24686e-16 1.09617e-06
4.46502e-16 5.26084e-16 2.78465e-07
2.11025e-16 1.90788e-16 2.97616e-07
0.00000e+00 0.00000e+00 0.00000e+00
0.00000e+00 0.00000e+00 0.00000e+00
8.29943e-17 1.78775e-16 8.13743e-08
3.64058e-16 2.49067e-16 3.18279e-07
3.40110e-16 9.15087e-17 1.68523e-06
8.35280e-16 1.49968e-16 2.10013e-06
2.45106e-16 2.81274e-16 1.93715e-06
1.13510e-15 4.07427e-16 1.97440e-06
6.06467e-17 6.77094e-16 2.28547e-06
1.29472e-15 1.06746e-15 2.81259e-06
5.83069e-16 7.86745e-16 4.01400e-06
1.40256e-15 1.53136e-15 4.07360e-06
9.35873e-16 1.02387e-15 3.01749e-06
1.31687e-15 1.52379e-15 3.35835e-06
1.12205e-15 1.12247e-15 3.05101e-06
1.25038e-15 1.20368e-15 3.06033e-06
1.04568e-15 1.03683e-15 2.93367e-06
8.22296e-16 8.24531e-16 2.39164e-06
7.62502e-16 7.99026e-16 1.82912e-06
3.93731e-16 4.30093e-16 1.20699e-06
2.23286e-16 3.36045e-16 2.07219e-08
0.00000e+00 0.00000e+00 0.00000e+00
0.00000e+00 0.00000e+00 0.00000e+00
2.47052e-16 2.28771e-16 7.31554e-07
2.40033e-16 1.43158e-16 1.27451e-06
7.68880e-16 2.44187e-16 1.95950e-06
2.32152e-16 2.08648e-16 2.52761e-06
1.30597e-15 1.44491e-16 3.24659e-06
9.54206e-17 8.08838e-16 3.77744e-06
1.71294e-15 8.04861e-16 4.36231e-06
4.43514e-16 1.12850e-15 5.69038e-06
1.81652e-15 1.40051e-15 7.11903e-06
1.00072e-15 1.29874e-15 6.02007e-06
1.69793e-15 1.66333e-15 4.82425e-06
1.38496e-15 1.41397e-15 4.80004e-06
1.51394e-15 1.49945e-15 4.75347e-06
1.33623e-15 1.37622e-15 4.19468e-06
1.17587e-15 1.08183e-15 4.10341e-06
1.08080e-15 1.15508e-15 3.36766e-06
6.91342e-16 6.85955e-16 2.15787e-06
6.54883e-16 7.11935e-16 1.31456e-06
2.73212e-16 1.85566e-16 2.17580e-07
0.00000e+00 0.00000e+00 0.00000e+00
0.00000e+00 0.00000e+00 0.00000e+00
1.07551e-16 9.55373e-17 3.09548e-07
7.11300e-16 3.35454e-16 1.20560e-06
1.80530e-16 1.70935e-16 2.22865e-06
1.31964e-15 7.26363e-17 4.50015e-06
8.21465e-17 8.18301e-16 5.02914e-06
1.90589e-15 5.01703e-16 5.07012e-06
3.33449e-16 1.30562e-15 6.21006e-06
2.24631e-15 1.19687e-15 5.08502e-06
9.88605e-16 1.64930e-15 6.88061e-06
2.17984e-15 1.52751e-15 6.86944e-06
1.50484e-15 1.78330e-15 6.16163e-06
1.90311e-15 1.54051e-15 6.32927e-06
1.73385e-15 1.69669e-15 6.40005e-06
1.55023e-15 1.26326e-15 4.80190e-06
1.44963e-15 1.49693e-15 4.41261e-06
1.05643e-15 9.18109e-16 3.55020e-06
1.00372e-15 1.08896e-15 2.78652e-06
5.65874e-16 5.15961e-16 1.77417e-06
3.67154e-16 2.90980e-16 5.10248e-07
0.00000e+00 0.00000e+00 0.00000e+00
0.00000e+00 0.00000e+00 0.00000e+00
4.17902e-16 2.35717e-16 2.07103e-07
8.14894e-17 1.21383e-16 1.35787e-06
1.26549e-15 2.68101e-16 1.99303e-06
1.03825e-16 6.79909e-16 2.69897e-06
1.95382e-15 2.59098e-16 5.18002e-06
2.86556e-16 1.31911e-15 5.74067e-06
2.54563e-15 8.61984e-16 7.52136e-06
7.94097e-16 1.90501e-15 7.92742e-06
2.58987e-15 1.42647e-15 8.94070e-06
1.46557e-15 2.12239e-15 8.32230e-06
2.28022e-15 1.44749e-15 8.18819e-06
1.70530e-15 2.13413e-15 7.44686e-06
1.80056e-15 1.29836e-15 7.13766e-06
1.71781e-15 1.77111e-15 5.09247e-06
1.37419e-15 1.15227e-15 5.33462e-06
1.29662e-15 1.30739e-15 4.02890e-06
8.18684e-16 7.81321e-16 2.77534e-06
6.94341e-16 6.52028e-16 2.31387e-06
2.18465e-16 1.30185e-16 1.36462e-06
0.00000e+00 0.00000e+00 0.00000e+00
0.00000e+00 0.00000e+00 0.00000e+00
7.35577e-17 3.84141e-17 2.63797e-07
9.12449e-16 2.09392e-16 6.34231e-07
2.59062e-17 4.88053e-16 1.61678e-06
1.84117e-15 6.71535e-17 3.44403e-06
3.74104e-16 1.24065e-15 5.24893e-06
2.65117e-15 6.44114e-16 7.90507e-06
6.94553e-16 1.90225e-15 8.78423e-06
2.97550e-15 1.14004e-15 9.09343e-06
1.30330e-15 2.47493e-15 9.57400e-06
2.67733e-15 1.19322e-15 9.62615e-06
1.74044e-15 2.54412e-15 8.97422e-06
2.19728e-15 1.17859e-15 7.81938e-06
1.69144e-15 2.16757e-15 7.63685e-06
1.59465e-15 1.20360e-15 6.56024e-06
1.50634e-15 1.67965e-15 5.59911e-06
9.68831e-16 8.56217e-16 4.17978e-06
1.00964e-15 1.03138e-15 3.20096e-06
4.14871e-16 3.54146e-16 2.89688e-06
2.65991e-16 2.16857e-16 7.61356e-07
0.00000e+00 0.00000e+00 0.00000e+00
0.00000e+00 0.00000e+00 0.00000e+00
4.92526e-16 7.62643e-17 6.76140e-07
4.39788e-20 2.93008e-16 1.59536e-06
1.54068e-15 2.51247e-17 1.77510e-06
3.43150e-16 1.05488e-15 3.52226e-06
2.45021e-15 4.14299e-16 3.99724e-06
6.29511e-16 1.84855e-15 6.44475e-06
3.06397e-15 9.27818e-16 8.67248e-06
1.18639e-15 2.56442e-15 1.00136e-05
3.17030e-15 1.09180e-15 9.98750e-06
1.73088e-15 2.77517e-15 1.01887e-05
2.59714e-15 1.03990e-15 9.82359e-06
1.73090e-15 2.41957e-15 9.23872e-06
1.98906e-15 1.08324e-15 8.27387e-06
1.51871e-15 2.00918e-15 6.20633e-06
1.06268e-15 9.79218e-16 5.90086e-06
1.20375e-15 1.42740e-15 4.05125e-06
5.07978e-16 4.25558e-16 3.02587e-06
5.04442e-16 5.08193e-16 1.25542e-06
1.23603e-16 7.26241e-17 3.12924e-07
0.00000e+00 0.00000e+00 0.00000e+00
0.00000e+00 0.00000e+00 0.00000e+00
3.47500e-18 1.66326e-16 3.93251e-07
1.06479e-15 1.40838e-17 1.48825e-06
2.19241e-16 7.56232e-16 1.87382e-06
2.03357e-15 4.21570e-16 3.77372e-06
5.48684e-16 1.55621e-15 6.29574e-06
2.83986e-15 7.93917e-16 7.55489e-06
1.00251e-15 2.39838e-15 9.10088e-06
3.16413e-15 1.09092e-15 1.00024e-05
1.51443e-15 2.81378e-15 1.03861e-05
2.90925e-15 9.37516e-16 1.03936e-05
1.65290e-15 2.58421e-15 9.96143e-06
2.35105e-15 8.47043e-16 9.49576e-06
1.48804e-15 2.21900e-15 8.57189e-06
1.42279e-15 8.40031e-16 7.62567e-06
1.29140e-15 1.62790e-15 6.32554e-06
5.27668e-16 5.69293e-16 3.46638e-06
7.36232e-16 9.29843e-16 2.90386e-06
1.95124e-16 7.33196e-17 9.58331e-07
1.72926e-16 1.97078e-16 1.74623e-08
0.00000e+00 0.00000e+00 0.00000e+00
0.00000e+00 0.00000e+00 0.00000e+00
5.06556e-16 1.18941e-17 1.48779e-07
1.12613e-16 5.18096e-16 2.84985e-07
1.60075e-15 2.76835e-16 1.97440e-06
4.76018e-16 1.32192e-15 4.09968e-06
2.39364e-15 6.76911e-16 5.65499e-06
7.59335e-16 2.17942e-15 7.91624e-06
2.96753e-15 1.02924e-15 8.96305e-06
1.22134e-15 2.77544e-15 1.01142e-05
2.95762e-15 8.90788e-16 1.05165e-05
1.35565e-15 2.68344e-15 1.06543e-05
2.47595e-15 7.66194e-16 1.00024e-05
1.34016e-15 2.33146e-15 9.35793e-06
1.81323e-15 5.98410e-16 8.31112e-06
1.22191e-15 1.84542e-15 6.20633e-06
8.06529e-16 4.59000e-16 7.24196e-06
9.34879e-16 1.17815e-15 4.28967e-06
2.61494e-16 2.61888e-16 2.00421e-06
3.45849e-16 4.10483e-16 1.31037e-06
1.14384e-16 6.94776e-18 3.33181e-07
0.00000e+00 0.00000e+00 0.00000e+00
0.00000e+00 0.00000e+00 0.00000e+00
7.45304e-17 2.25004e-16 8.70088e-07
1.01725e-15 2.27393e-16 1.81049e-06
3.26210e-16 9.94250e-16 3.11155e-06
1.88662e-15 5.77152e-16 5.32717e-06
6.86684e-16 1.83319e-15 6.16349e-06
2.47865e-15 8.47269e-16 6.60121e-06
8.39985e-16 2.64940e-15 8.64267e-06
2.66437e-15 8.92818e-16 9.75281e-06
1.11927e-15 2.69853e-15 1.00508e-05
2.55102e-15 7.08897e-16 1.02147e-05
1.03264e-15 2.35942e-15 9.54047e-06
1.90386e-15 6.02466e-16 8.63522e-06
1.05155e-15 1.88035e-15 7.44686e-06
1.07577e-15 3.65459e-16 6.78748e-06
8.62405e-16 1.24539e-15 4.26359e-06
3.78419e-16 3.13907e-16 3.45334e-06
4.73045e-16 5.78011e-16 1.96695e-06
1.69848e-16 9.79586e-17 1.14273e-06
8.60633e-17 4.54808e-17 7.33417e-08
0.00000e+00 0.00000e+00 0.00000e+00
0.00000e+00 0.00000e+00 0.00000e+00
4.48856e-16 1.83249e-16 1.64495e-07
1.69722e-16 6.10005e-16 1.47521e-06
1.24932e-15 3.74204e-16 2.16253e-06
3.72697e-16 1.46714e-15 4.80562e-06
1.82441e-15 7.82574e-16 6.20075e-06
6.09902e-16 2.14351e-15 7.61449e-06
2.25595e-15 9.30976e-16 8.82149e-06
8.29921e-16 2.53219e-15 9.20147e-06
2.28816e-15 7.69773e-16 8.78423e-06
8.31105e-16 2.36659e-15 8.96305e-06
2.02799e-15 5.11785e-16 8.69110e-06
7.33371e-16 1.93647e-15 8.77678e-06
1.29124e-15 4.78921e-16 7.53254e-06
7.60936e-16 1.24887e-15 5.42775e-06
5.92784e-16 2.68444e-16 5.24707e-06
5.24568e-16 6.95099e-16 1.27777e-06
1.81712e-16 2.57888e-16 7.83242e-07
1.83722e-16 1.22885e-16 9.04780e-07
8.84649e-17 5.07340e-17 3.07802e-07
0.00000e+00 0.00000e+00 0.00000e+00
0.00000e+00 0.00000e+00 0.00000e+00
1.87958e-17 3.17633e-16 3.64147e-07
6.46660e-16 3.21226e-16 1.45752e-06
1.73954e-16 9.13382e-16 2.10106e-06
1.33644e-15 5.80989e-16 4.26173e-06
3.97488e-16 1.77004e-15 5.07757e-06
1.71359e-15 8.25112e-16 7.34627e-06
5.29232e-16 2.26163e-15 6.26594e-06
1.86828e-15 7.65176e-16 7.73370e-06
6.84199e-16 2.21400e-15 6.31437e-06
1.84392e-15 5.20503e-16 7.67410e-06
4.69118e-16 1.90398e-15 7.32020e-06
1.41746e-15 3.77182e-16 7.47666e-06
4.48463e-16 1.47843e-15 7.11530e-06
7.37537e-16 1.78515e-16 5.23590e-06
4.20214e-16 7.64242e-16 3.24659e-06
3.11900e-16 2.26712e-16 1.90549e-06
1.96262e-16 1.82949e-16 1.03749e-06
6.27975e-17 2.56358e-16 8.18167e-07
3.02357e-17 1.80052e-17 4.45871e-08
0.00000e+00 0.00000e+00 0.00000e+00
0.00000e+00 0.00000e+00 0.00000e+00
2.70689e-16 2.06329e-16 2.32831e-09
4.95259e-17 5.42555e-16 9.10368e-07
8.85238e-16 5.14784e-16 2.44752e-06
2.97014e-16 1.22214e-15 3.30247e-06
1.31136e-15 6.75361e-16 4.25987e-06
3.55574e-16 1.80267e-15 4.92670e-06
1.43152e-15 6.79615e-16 5.33089e-06
3.68902e-16 2.04226e-15 6.26408e-06
1.39391e-15 4.69776e-16 5.87106e-06
2.28501e-16 1.76894e-15 6.04615e-06
1.27823e-15 3.21542e-16 5.40167e-06
1.76866e-16 1.56871e-15 5.92321e-06
8.27406e-16 9.24943e-17 4.90807e-06
2.63063e-16 1.02075e-15 5.36628e-06
4.14083e-16 3.76509e-17 2.69711e-06
1.20776e-16 3.38787e-16 2.20910e-06
6.97286e-17 8.39369e-17 1.76020e-07
3.51249e-17 4.48915e-17 1.05705e-07
4.94839e-17 7.73200e-18 1.47033e-07
0.00000e+00 0.00000e+00 0.00000e+00
0.00000e+00 0.00000e+00 0.00000e+00
7.96512e-17 2.77731e-16 1.12457e-07
5.63247e-16 2.71395e-16 4.29340e-07
1.35954e-16 8.06286e-16 1.20653e-06
9.34363e-16 5.35455e-16 2.94112e-06
2.78157e-16 1.31057e-15 2.56393e-06
1.10264e-15 6.09913e-16 3.03239e-06
2.71254e-16 1.65862e-15 3.11248e-06
1.14498e-15 4.40530e-16 4.14439e-06
1.18190e-16 1.56005e-15 3.73647e-06
9.52997e-16 2.33408e-16 3.75696e-06
6.46438e-19 1.47550e-15 3.48128e-06
7.83259e-16 1.48313e-17 3.93204e-06
1.71434e-17 1.13876e-15 4.15742e-06
3.91250e-16 7.38211e-17 3.01749e-06
9.90842e-18 5.60441e-16 2.11224e-06
2.49853e-16 1.86824e-16 9.21078e-07
5.25849e-17 1.08486e-16 1.12969e-06
1.17383e-16 8.52959e-17 1.83471e-07
5.59230e-17 3.60077e-17 3.45171e-07
0.00000e+00 0.00000e+00 0.00000e+00
0.00000e+00 0.00000e+00 0.00000e+00
1.96586e-16 2.25895e-16 2.78815e-07
1.28262e-16 4.07403e-16 1.61584e-07
6.82989e-16 3.68346e-16 5.66244e-07
2.18135e-16 8.80212e-16 1.28662e-06
7.56957e-16 3.99286e-16 1.39419e-06
8.46552e-17 1.19139e-15 9.73232e-07
7.30411e-16 4.84011e-16 1.08406e-06
3.25879e-17 1.22024e-15 1.58045e-06
7.24929e-16 1.09993e-16 3.41795e-06
6.05070e-17 1.13402e-15 3.97861e-06
5.22974e-16 1.01602e-16 2.44286e-06
1.44631e-16 9.50533e-16 4.61470e-06
3.37555e-16 1.01115e-16 1.90828e-06
1.80493e-16 6.35395e-16 1.38208e-06
1.22798e-16 1.78810e-16 7.15256e-07
2.66893e-16 2.55082e-16 4.81959e-07
1.41635e-18 2.41809e-16 3.91155e-08
8.87426e-17 6.27172e-18 2.00933e-07
9.35954e-17 7.49204e-17 6.78992e-07
0.00000e+00 0.00000e+00 0.00000e+00
0.00000e+00 0.00000e+00 0.00000e+00
5.15915e-17 1.74156e-16 1.80007e-07
3.60348e-16 2.83608e-16 3.81609e-07
1.80834e-16 4.05436e-16 2.02097e-07
4.64532e-16 3.09182e-16 4.27943e-07
9.92542e-17 6.99173e-16 3.87896e-07
4.69974e-16 2.90082e-16 1.01281e-06
1.41818e-17 8.65155e-16 5.09433e-07
3.67285e-16 1.48840e-16 1.34530e-06
1.01782e-16 7.14054e-16 6.19330e-07
4.11672e-16 4.07655e-17 1.82074e-06
1.64818e-16 6.64274e-16 1.50874e-06
1.55175e-16 2.34797e-17 2.71248e-06
1.83833e-16 4.92031e-16 1.66567e-06
7.78217e-17 1.62381e-16 1.28988e-06
3.20697e-16 2.74529e-16 7.52043e-07
8.88283e-17 2.44163e-16 6.29807e-07
2.60105e-16 1.28971e-16 6.23986e-08
1.18779e-16 2.13881e-16 4.73578e-07
6.60912e-17 3.32643e-17 3.67843e-07
0.00000e+00 0.00000e+00 0.00000e+00
0.00000e+00 0.00000e+00 0.00000e+00
1.24599e-16 1.27684e-16 2.84643e-07
3.58843e-17 1.64508e-16 3.71627e-07
1.58948e-16 1.52290e-16 9.58098e-08
8.86435e-17 2.47894e-16 2.33063e-07
2.18843e-16 1.73538e-16 2.58908e-07
1.84287e-17 3.78902e-16 1.28755e-07
1.46771e-16 7.87045e-17 1.33645e-07
8.73866e-17 3.66412e-16 3.28757e-07
1.49238e-16 8.23318e-17 1.99536e-07
1.89170e-16 3.12408e-16 7.21775e-07
8.62512e-17 1.89396e-17 4.80562e-07
1.58712e-16 3.34016e-16 4.14439e-07
1.52104e-18 1.47193e-16 2.27476e-07
1.70598e-16 2.37700e-16 4.40050e-08
6.73337e-17 2.14643e-16 1.93366e-07
1.90360e-16 1.12828e-16 1.21305e-07
5.28082e-17 1.41049e-16 1.95520e-07
1.01196e-16 2.77861e-17 2.21538e-07
5.29201e-17 4.44257e-17 1.48611e-07
0.00000e+00 0.00000e+00 0.00000e+00
0.00000e+00 0.00000e+00 0.00000e+00
0.00000e+00 0.00000e+00 0.00000e+00
0.00000e+00 0.00000e+00 0.00000e+00
0.00000e+00 0.00000e+00 0.00000e+00
0.00000e+00 0.00000e+00 0.00000e+00
0.00000e+00 0.00000e+00 0.00000e+00
0.00000e+00 0.00000e+00 0.00000e+00
0.00000e+00 0.00000e+00 0.00000e+00
0.00000e+00 0.00000e+00 0.00000e+00
0.00000e+00 0.00000e+00 0.00000e+00
0.00000e+00 0.00000e+00 0.00000e+00
0.00000e+00 0.00000e+00 0.00000e+00
0.00000e+00 0.00000e+00 0.00000e+00
0.00000e+00 0.00000e+00 0.00000e+00
0.00000e+00 0.00000e+00 0.00000e+00
0.00000e+00 0.00000e+00 0.00000e+00
0.00000e+00 0.00000e+00 0.00000e+00
0.00000e+00 0.00000e+00 0.00000e+00
0.00000e+00 0.00000e+00 0.00000e+00
0.00000e+00 0.00000e+00 0.00000e+00
0.00000e+00 0.00000e+00 0.00000e+00
</DataArray>
<DataArray Name="angDisp_error" type="Float32" NumberOfComponents="3" format="ascii">
0.00000e+00 0.00000e+00 0.00000e+00
0.00000e+00 0.00000e+00 0.00000e+00
0.00000e+00 0.00000e+00 0.00000e+00
0.00000e+00 0.00000e+00 0.00000e+00
0.00000e+00 0.00000e+00 0.00000e+00
0.00000e+00 0.00000e+00 0.00000e+00
0.00000e+00 0.00000e+00 0.00000e+00
0.00000e+00 0.00000e+00 0.00000e+00
0.00000e+00 0.00000e+00 0.00000e+00
0.00000e+00 0.00000e+00 0.00000e+00
0.00000e+00 0.00000e+00 0.00000e+00
0.00000e+00 0.00000e+00 0.00000e+00
0.00000e+00 0.00000e+00 0.00000e+00
0.00000e+00 0.00000e+00 0.00000e+00
0.00000e+00 0.00000e+00 0.00000e+00
0.00000e+00 0.00000e+00 0.00000e+00
0.00000e+00 0.00000e+00 0.00000e+00
0.00000e+00 0.00000e+00 0.00000e+00
0.00000e+00 0.00000e+00 0.00000e+00
0.00000e+00 0.00000e+00 0.00000e+00
0.00000e+00 0.00000e+00 0.00000e+00
0.00000e+00 0.00000e+00 0.00000e+00
1.22129e-05 1.56942e-05 1.95373e-14
5.30463e-05 5.47436e-05 1.73507e-14
2.67290e-05 5.58174e-05 2.51437e-14
3.26075e-05 5.06947e-05 7.62698e-14
2.52090e-05 5.10798e-05 2.93041e-14
1.57431e-05 3.83169e-05 8.69706e-14
2.96384e-05 3.30294e-05 7.85993e-14
1.08033e-06 1.59943e-05 1.25487e-13
2.55555e-05 1.62661e-05 1.13876e-13
5.01424e-06 6.17804e-06 1.88885e-14
2.74032e-05 1.08659e-05 5.82895e-14
1.01030e-05 2.10328e-05 6.76669e-14
2.59131e-05 1.90753e-05 1.30922e-13
2.16067e-06 3.26070e-05 1.06939e-13
3.78937e-05 5.53336e-05 2.05861e-14
2.08057e-05 4.99603e-05 8.02679e-14
3.05157e-05 5.77080e-05 1.22220e-14
4.45349e-05 5.46854e-05 1.52581e-13
1.94707e-05 2.18623e-05 4.47557e-16
0.00000e+00 0.00000e+00 0.00000e+00
0.00000e+00 0.00000e+00 0.00000e+00
6.06799e-05 4.88330e-05 3.99990e-14
5.69317e-05 5.76824e-05 1.47435e-13
6.16089e-05 7.07172e-05 1.58294e-13
6.10352e-05 6.13928e-05 2.75278e-13
5.06267e-05 5.49685e-05 4.49070e-14
4.50835e-05 4.45545e-05 2.36023e-13
5.28544e-05 3.33032e-05 3.71469e-14
2.36183e-05 2.26973e-05 1.43354e-13
5.42253e-05 1.08350e-05 2.28168e-13
9.16421e-06 9.20062e-07 9.72310e-14
4.78178e-05 1.50083e-06 2.06907e-13
1.89692e-05 2.44640e-05 4.15736e-14
5.82561e-05 5.09573e-05 7.18891e-15
3.41386e-05 5.27259e-05 7.34052e-14
6.94916e-05 5.97239e-05 1.39096e-13
3.78862e-05 6.34138e-05 6.67512e-14
7.07023e-05 5.99772e-05 3.23958e-14
5.82263e-05 5.20535e-05 2.32494e-13
5.00227e-05 4.37545e-05 1.91011e-13
0.00000e+00 0.00000e+00 0.00000e+00
0.00000e+00 0.00000e+00 0.00000e+00
5.07734e-05 3.10056e-05 3.52271e-15
6.71912e-05 6.32703e-05 2.22620e-13
9.34973e-05 7.91587e-05 1.90103e-13
4.97773e-05 7.21328e-05 1.74432e-13
7.72998e-05 6.70254e-05 5.82303e-14
2.52351e-05 5.75110e-05 2.11132e-13
6.55055e-05 4.84008e-05 7.98418e-14
9.31323e-06 3.74708e-05 1.85828e-14
5.51641e-05 2.13664e-05 1.62996e-13
1.01477e-05 3.08021e-06 1.85676e-13
6.16461e-05 1.91238e-05 2.37728e-13
3.88920e-06 2.74889e-05 9.80484e-14
6.06179e-05 2.66749e-05 1.23305e-14
3.24696e-05 4.69722e-05 6.04164e-14
8.11517e-05 6.69472e-05 3.33108e-14
5.26607e-05 7.88048e-05 5.21850e-14
8.25040e-05 8.87923e-05 1.35183e-13
7.03037e-05 6.80424e-05 1.08411e-13
5.23156e-05 2.67755e-05 8.88133e-14
0.00000e+00 0.00000e+00 0.00000e+00
0.00000e+00 0.00000e+00 0.00000e+00
4.55971e-05 1.94348e-05 1.44117e-13
6.29015e-05 4.18276e-05 4.91353e-14
9.37432e-05 5.76228e-05 1.43735e-14
2.68519e-05 4.20064e-05 1.30513e-13
8.42065e-05 4.41521e-05 6.93800e-14
6.83218e-06 4.18685e-05 9.79112e-14
7.16448e-05 3.06070e-05 7.18947e-14
5.97537e-06 1.46367e-05 1.74830e-13
6.58929e-05 1.43982e-05 5.13168e-14
6.70552e-07 1.60113e-06 3.61060e-15
6.79791e-05 1.46423e-05 5.01331e-13
7.25687e-06 1.60933e-05 2.00891e-13
6.92010e-05 3.94098e-05 5.17002e-14
2.24486e-05 5.06900e-05 1.83804e-13
6.89849e-05 4.57764e-05 1.45526e-15
4.11719e-05 5.47543e-05 8.99776e-14
8.65832e-05 5.25415e-05 9.93734e-14
5.79506e-05 4.12688e-05 9.26324e-14
4.69196e-05 1.85259e-05 6.16950e-14
0.00000e+00 0.00000e+00 0.00000e+00
0.00000e+00 0.00000e+00 0.00000e+00
4.65531e-05 3.11285e-05 1.45994e-13
6.62114e-05 7.84621e-05 1.54359e-14
6.41905e-05 7.40811e-05 6.74509e-14
4.29973e-05 6.65635e-05 3.81519e-14
7.03484e-05 7.20322e-05 1.73495e-13
1.45957e-05 4.54485e-05 1.28686e-13
6.77258e-05 3.12701e-05 1.38096e-13
1.49012e-08 2.06083e-05 1.95296e-13
6.01411e-05 2.14074e-05 2.03864e-13
8.32975e-06 5.35328e-06 2.50673e-13
5.82784e-05 1.42623e-05 2.55144e-14
3.76999e-06 2.63192e-05 6.74701e-15
6.03497e-05 3.06666e-05 2.72930e-14
2.35736e-05 3.54275e-05 9.82765e-14
6.42538e-05 5.26756e-05 8.23918e-14
3.34978e-05 5.86063e-05 1.20696e-13
8.06898e-05 8.22693e-05 4.24274e-14
4.32208e-05 7.88644e-05 1.24175e-13
4.78569e-05 4.41112e-05 1.49880e-13
0.00000e+00 0.00000e+00 0.00000e+00
0.00000e+00 0.00000e+00 0.00000e+00
4.14546e-05 1.06692e-05 1.91214e-13
3.80464e-05 2.37077e-05 1.08924e-14
4.70355e-05 2.14875e-05 8.34258e-14
4.89615e-05 2.39909e-05 7.90294e-15
3.58671e-05 1.96993e-05 1.71529e-13
2.48924e-05 1.64583e-05 9.66193e-14
5.73546e-05 4.23193e-06 1.34607e-13
8.16584e-06 9.09343e-06 3.19774e-14
5.79804e-05 5.25266e-07 5.62193e-14
7.03335e-06 6.77196e-07 9.29517e-14
5.66095e-05 6.22310e-06 9.43051e-14
5.96046e-07 5.88596e-06 1.90437e-14
4.82574e-05 1.70469e-05 2.03790e-13
1.66968e-05 1.95354e-05 4.26040e-14
6.04764e-05 3.34084e-05 2.80385e-14
3.57218e-05 3.87728e-05 4.07771e-14
5.63338e-05 2.91318e-05 1.24199e-13
3.81283e-05 8.48621e-06 3.95855e-14
3.72524e-05 1.11014e-05 1.06123e-13
0.00000e+00 0.00000e+00 0.00000e+00
0.00000e+00 0.00000e+00 0.00000e+00
2.94261e-05 3.65973e-05 9.09084e-14
4.23267e-05 5.97835e-05 1.26822e-13
4.49587e-05 6.09457e-05 3.33950e-14
2.91988e-05 6.13481e-05 1.16490e-13
2.85953e-05 6.07222e-05 3.45612e-13
1.51992e-05 5.55143e-05 1.39451e-13
3.55765e-05 5.17666e-05 9.33208e-14
2.98023e-08 3.17022e-05 3.39263e-15
4.21628e-05 8.68738e-06 6.40570e-14
6.23614e-06 5.51962e-06 9.30772e-14
3.98159e-05 1.73450e-05 8.23622e-14
1.13249e-06 2.89157e-05 1.51703e-13
4.18276e-05 3.47942e-05 2.68691e-13
5.32717e-06 4.15593e-05 2.51949e-14
4.22299e-05 5.54919e-05 1.75225e-13
3.78117e-05 6.27190e-05 6.69886e-14
3.90168e-05 5.51790e-05 1.19182e-13
4.17531e-05 6.56247e-05 1.88748e-13
2.56272e-05 4.44651e-05 1.26450e-13
0.00000e+00 0.00000e+00 0.00000e+00
0.00000e+00 0.00000e+00 0.00000e+00
1.39563e-05 1.75834e-06 1.32502e-13
2.86298e-05 1.65999e-05 7.14877e-14
2.50675e-05 1.03712e-05 8.96909e-14
1.45100e-05 4.78327e-06 7.60591e-15
3.55840e-05 4.32134e-07 2.12742e-13
6.33299e-06 1.03861e-05 6.16945e-14
2.45646e-05 3.23355e-06 2.76104e-15
9.46224e-07 8.63522e-06 7.19107e-15
2.39611e-05 3.01749e-06 7.92625e-15
6.18398e-06 4.79647e-06 1.10592e-13
2.73585e-05 6.92531e-06 5.87895e-14
9.66340e-06 2.23517e-06 1.03885e-13
3.25516e-05 1.49012e-08 1.56570e-13
4.43310e-06 2.39909e-06 4.07314e-15
3.16761e-05 5.57303e-06 1.25057e-13
1.47782e-05 8.83639e-06 1.48614e-13
2.36649e-05 1.50353e-05 6.69143e-14
3.38936e-05 7.71880e-06 2.15671e-13
2.19368e-05 4.14997e-06 9.36330e-14
0.00000e+00 0.00000e+00 0.00000e+00
0.00000e+00 0.00000e+00 0.00000e+00
5.21180e-06 2.11447e-05 2.22497e-13
1.66660e-05 5.99772e-05 1.23759e-13
1.66446e-05 7.33584e-05 7.24931e-14
5.36814e-06 6.77407e-05 3.67199e-14
2.24598e-05 6.18696e-05 7.05072e-14
2.97278e-06 5.34505e-05 1.35101e-13
1.53705e-05 4.31985e-05 1.94116e-13
8.16956e-06 3.46676e-05 2.00385e-13
1.32993e-05 2.09510e-05 3.59382e-13
8.98540e-06 5.12656e-06 1.56379e-13
1.46069e-05 1.48788e-05 1.20083e-13
1.37091e-06 2.66656e-05 1.06797e-13
2.11820e-05 4.38541e-05 4.56106e-14
9.31323e-06 4.92781e-05 4.02313e-14
1.36290e-05 5.45382e-05 2.09503e-13
1.68383e-05 6.02305e-05 6.14139e-14
1.48257e-05 6.29425e-05 7.25866e-14
1.55387e-05 5.35846e-05 2.12896e-13
1.08271e-05 3.41982e-05 5.99447e-14
0.00000e+00 0.00000e+00 0.00000e+00
0.00000e+00 0.00000e+00 0.00000e+00
8.16512e-06 1.43051e-06 1.05458e-14
1.91032e-06 1.04755e-05 9.29485e-14
8.96284e-07 1.87755e-06 6.46905e-14
5.02323e-06 3.65078e-06 7.86170e-14
3.37948e-06 5.00679e-06 6.56504e-14
9.14860e-06 6.24359e-06 2.65004e-13
4.27797e-06 1.49012e-07 5.32017e-14
8.71294e-06 8.87364e-06 2.11403e-13
1.26099e-06 2.23517e-08 2.05761e-13
2.77393e-06 7.59661e-06 4.60232e-14
1.75535e-06 5.62519e-07 3.33534e-13
1.57761e-06 9.02265e-06 1.36142e-14
2.53001e-06 1.16229e-06 6.65269e-14
7.80295e-06 1.01924e-05 5.47030e-14
7.11439e-06 1.60933e-06 1.57956e-13
1.05191e-05 7.15256e-06 1.30267e-13
1.01626e-05 1.35601e-05 7.69637e-14
8.94378e-06 1.27256e-05 1.75960e-13
8.31887e-06 1.34557e-05 3.24485e-15
0.00000e+00 0.00000e+00 0.00000e+00
0.00000e+00 0.00000e+00 0.00000e+00
5.77932e-06 2.82899e-05 2.25806e-14
1.68351e-05 4.92483e-05 2.08340e-13
1.09123e-05 6.48201e-05 7.30498e-15
1.26567e-05 6.71595e-05 2.12270e-13
1.65142e-05 6.16461e-05 1.11565e-13
1.47205e-05 5.91427e-05 2.01014e-13
5.43520e-06 4.52623e-05 2.52372e-13
3.60608e-06 2.49445e-05 1.15618e-13
6.69435e-06 3.12924e-06 5.55412e-14
9.38773e-07 2.05876e-06 8.49873e-15
9.12324e-06 2.14651e-05 4.27553e-14
6.92159e-06 2.92435e-05 1.45311e-13
1.25021e-05 5.08875e-05 3.60307e-14
7.60332e-06 5.49853e-05 4.00739e-14
9.39518e-06 5.88149e-05 1.35404e-13
5.41657e-06 6.13481e-05 5.41523e-14
2.45804e-05 5.75036e-05 1.56855e-13
9.71835e-07 5.81443e-05 3.47598e-13
8.64733e-06 2.11746e-05 4.05279e-14
0.00000e+00 0.00000e+00 0.00000e+00
0.00000e+00 0.00000e+00 0.00000e+00
2.11692e-05 8.04663e-06 1.49392e-13
2.81045e-05 1.07735e-05 2.94808e-14
2.85767e-05 6.79493e-06 2.12342e-13
1.90772e-05 1.08778e-06 3.01797e-14
2.02246e-05 2.69711e-06 1.92470e-13
1.48267e-05 5.46873e-06 1.72022e-13
2.95490e-05 8.04663e-07 1.15158e-14
8.49366e-07 8.64267e-07 2.89782e-13
2.96235e-05 1.92225e-06 1.84811e-13
1.54972e-06 1.50636e-05 4.16627e-14
2.81855e-05 2.42144e-07 4.57383e-14
1.49012e-06 2.07126e-06 1.88033e-14
2.06828e-05 2.95043e-06 2.05780e-13
1.82725e-05 1.01030e-05 2.31812e-13
2.50265e-05 2.95043e-06 2.74074e-14
1.50427e-05 2.83122e-06 9.44246e-14
3.08082e-05 1.50353e-05 6.41801e-15
2.97977e-05 5.09620e-06 2.93673e-13
1.40509e-05 6.40750e-06 5.96074e-14
0.00000e+00 0.00000e+00 0.00000e+00
0.00000e+00 0.00000e+00 0.00000e+00
2.46027e-05 3.22461e-05 7.42439e-14
3.72697e-05 7.24792e-05 6.17795e-14
3.62769e-05 6.90669e-05 2.99140e-13
3.75286e-05 7.42078e-05 1.14299e-14
2.49669e-05 6.80536e-05 1.11931e-13
8.75443e-06 4.76092e-05 1.78129e-13
3.63812e-05 3.40566e-05 3.72361e-14
3.78489e-06 2.60845e-05 3.78845e-14
4.02182e-05 9.63733e-06 5.51478e-14
1.08555e-05 4.37975e-06 2.31234e-13
4.04567e-05 1.91256e-05 2.27757e-13
1.46031e-06 2.21580e-05 4.51320e-14
3.37362e-05 4.27216e-05 3.42877e-14
1.39028e-05 5.81294e-05 4.34181e-14
3.39746e-05 7.47591e-05 1.85020e-14
2.12789e-05 6.81430e-05 1.13841e-13
4.97829e-05 6.39558e-05 1.00915e-13
4.25819e-05 4.63426e-05 1.07874e-13
2.71979e-05 2.71350e-05 2.68681e-13
0.00000e+00 0.00000e+00 0.00000e+00
0.00000e+00 0.00000e+00 0.00000e+00
3.59858e-05 1.06543e-06 5.06030e-14
4.55659e-05 1.66371e-05 3.33840e-16
5.37299e-05 1.67489e-05 1.37753e-13
3.75099e-05 1.19880e-05 9.69724e-15
5.43222e-05 1.39028e-05 1.67210e-14
1.63987e-05 1.74642e-05 3.24454e-13
6.11171e-05 1.71661e-05 7.68528e-14
2.66731e-06 1.16080e-05 2.35688e-13
6.55502e-05 6.61984e-06 1.18651e-13
7.03335e-06 2.55719e-06 9.59378e-14
5.94556e-05 6.27339e-06 5.85465e-14
1.83284e-06 8.65385e-06 2.09508e-14
5.06416e-05 8.21799e-06 4.29168e-14
1.94907e-05 3.21865e-06 1.56449e-15
5.35995e-05 7.89762e-06 9.80379e-14
4.16413e-05 1.28821e-05 2.98997e-14
6.02268e-05 2.92510e-05 4.38228e-14
4.22839e-05 3.49134e-05 1.04782e-14
3.56385e-05 1.26213e-05 6.17736e-14
0.00000e+00 0.00000e+00 0.00000e+00
0.00000e+00 0.00000e+00 0.00000e+00
4.82793e-05 3.76925e-05 5.30944e-14
5.51157e-05 7.32839e-05 3.08210e-14
7.15367e-05 8.22842e-05 1.06375e-13
2.70680e-05 7.65547e-05 2.16795e-13
7.98553e-05 7.25687e-05 2.31207e-13
5.06639e-06 5.29662e-05 1.64698e-13
6.37472e-05 3.24249e-05 7.56748e-14
1.06543e-05 1.54786e-05 7.52413e-14
6.10501e-05 1.44225e-05 1.26856e-13
8.71718e-06 9.39495e-07 2.07633e-13
5.48363e-05 6.56582e-06 3.51152e-14
2.80142e-06 1.57841e-05 8.61304e-14
6.23614e-05 4.37796e-05 1.40600e-13
1.75014e-05 6.33076e-05 8.10248e-14
6.54384e-05 7.39023e-05 2.01890e-13
3.91826e-05 7.58320e-05 4.74394e-14
7.39507e-05 7.79331e-05 1.76438e-14
6.44475e-05 5.78836e-05 1.22856e-13
5.50789e-05 2.47993e-05 3.71929e-14
0.00000e+00 0.00000e+00 0.00000e+00
0.00000e+00 0.00000e+00 0.00000e+00
4.96013e-05 2.33650e-05 2.57511e-13
6.60270e-05 4.64171e-05 3.82666e-14
8.99471e-05 5.72801e-05 6.78436e-14
3.48836e-05 3.33712e-05 2.75723e-14
9.18061e-05 3.92124e-05 6.63394e-14
1.18464e-06 4.01922e-05 1.53604e-13
8.12560e-05 2.83644e-05 9.80383e-14
2.13087e-06 2.55741e-05 1.47219e-14
6.96331e-05 1.04029e-05 1.23229e-13
3.05474e-06 1.56917e-05 4.69490e-14
6.27339e-05 1.73636e-05 1.30724e-14
1.83433e-05 2.05971e-05 1.17963e-13
6.76364e-05 1.85445e-05 5.23466e-14
2.33725e-05 2.48104e-05 1.08428e-14
6.62431e-05 3.81395e-05 4.04150e-14
4.97773e-05 4.04194e-05 1.13653e-13
7.76015e-05 5.73695e-05 2.19458e-13
6.77854e-05 6.29202e-05 3.06069e-14
4.59123e-05 2.99551e-05 4.19843e-15
0.00000e+00 0.00000e+00 0.00000e+00
0.00000e+00 0.00000e+00 0.00000e+00
5.66784e-05 3.13092e-05 1.08336e-13
6.32666e-05 6.06477e-05 7.84489e-14
8.67471e-05 8.23401e-05 7.59627e-14
5.47618e-05 8.18558e-05 1.05007e-13
7.88718e-05 6.41346e-05 5.90086e-14
2.08095e-05 6.01150e-05 2.74627e-13
6.49393e-05 4.52083e-05 5.54369e-14
5.87106e-06 2.53059e-05 1.27002e-13
3.97563e-05 7.96653e-06 6.76052e-14
5.36442e-07 1.00847e-05 1.93716e-13
3.87728e-05 6.16442e-06 1.23896e-13
4.67896e-06 4.47426e-05 1.33902e-13
5.77867e-05 5.73527e-05 1.54134e-13
1.53780e-05 5.71683e-05 1.13567e-13
7.12574e-05 6.72899e-05 1.00984e-13
5.25638e-05 7.88048e-05 3.70791e-14
7.65659e-05 7.96393e-05 1.05376e-13
6.67349e-05 5.75781e-05 2.44085e-13
5.38845e-05 3.07392e-05 9.98273e-14
0.00000e+00 0.00000e+00 0.00000e+00
0.00000e+00 0.00000e+00 0.00000e+00
5.43171e-05 5.36945e-05 4.95597e-14
5.59911e-05 5.33313e-05 5.42505e-14
6.86347e-05 5.72111e-05 1.59717e-14
4.51505e-05 5.96456e-05 8.94168e-14
6.56471e-05 4.95929e-05 1.01541e-13
3.15905e-05 5.46444e-05 1.02128e-13
5.62072e-05 3.53819e-05 1.00937e-13
2.21729e-05 1.66055e-05 7.64014e-14
6.20484e-05 1.75615e-05 1.08084e-13
2.02954e-05 1.34029e-05 1.27027e-13
7.24643e-05 1.68048e-05 3.47757e-14
1.00434e-05 1.92001e-05 4.02731e-14
6.16759e-05 2.21329e-05 5.66524e-14
3.17767e-05 5.18691e-05 3.71249e-14
6.73607e-05 5.76209e-05 9.90413e-14
5.09769e-05 6.50287e-05 2.32289e-13
6.24023e-05 6.02473e-05 1.20487e-13
6.20969e-05 5.61830e-05 9.91544e-14
5.58887e-05 3.77698e-05 2.32180e-14
0.00000e+00 0.00000e+00 0.00000e+00
0.00000e+00 0.00000e+00 0.00000e+00
1.43521e-05 2.19324e-05 1.01619e-14
4.73503e-05 5.04749e-05 3.82265e-14
3.31756e-05 5.75921e-05 1.48134e-13
2.79918e-05 6.03264e-05 9.71401e-15
2.93292e-05 5.40959e-05 6.63379e-14
7.30157e-06 3.70787e-05 1.53380e-13
2.19792e-05 3.10410e-05 1.41155e-13
5.47618e-06 2.57336e-05 2.74783e-13
2.11373e-05 1.29107e-05 3.45302e-13
1.56909e-05 4.35403e-06 1.47009e-13
3.22536e-05 2.45182e-06 9.35418e-14
1.27256e-05 1.32760e-05 8.60963e-15
3.53903e-05 3.09069e-05 3.96849e-14
3.56138e-06 3.97600e-05 1.13033e-13
2.91243e-05 4.70374e-05 3.25224e-13
2.17892e-05 4.48544e-05 2.17743e-13
2.93367e-05 5.53145e-05 7.77611e-14
3.57684e-05 5.91562e-05 1.02775e-13
1.50895e-05 1.93729e-05 5.92702e-14
0.00000e+00 0.00000e+00 0.00000e+00
0.00000e+00 0.00000e+00 0.00000e+00
0.00000e+00 0.00000e+00 0.00000e+00
0.00000e+00 0.00000e+00 0.00000e+00
0.00000e+00 0.00000e+00 0.00000e+00
0.00000e+00 0.00000e+00 0.00000e+00
0.00000e+00 0.00000e+00 0.00000e+00
0.00000e+00 0.00000e+00 0.00000e+00
0.00000e+00 0.00000e+00 0.00000e+00
0.00000e+00 0.00000e+00 0.00000e+00
0.00000e+00 0.00000e+00 0.00000e+00
0.00000e+00 0.00000e+00 0.00000e+00
0.00000e+00 0.00000e+00 0.00000e+00
0.00000e+00 0.00000e+00 0.00000e+00
0.00000e+00 0.00000e+00 0.00000e+00
0.00000e+00 0.00000e+00 0.00000e+00
0.00000e+00 0.00000e+00 0.00000e+00
0.00000e+00 0.00000e+00 0.00000e+00
0.00000e+00 0.00000e+00 0.00000e+00
0.00000e+00 0.00000e+00 0.00000e+00
0.00000e+00 0.00000e+00 0.00000e+00
0.00000e+00 0.00000e+00 0.00000e+00
</DataArray>
</PointData>
</Piece>
</UnstructuredGrid>
</VTKFile>