<?xml version="1.0"?>
<VTKFile type="UnstructuredGrid" version="0.1" byte_order="LittleEndian">
<UnstructuredGrid>
<Piece NumberOfPoints="441" NumberOfCells="400">
<Points>
<DataArray type="Float32" NumberOfComponents="3" format="ascii">
5.00000e-01 5.00000e-01 0.00000e+00
4.50000e-01 5.00000e-01 0.00000e+00
4.00000e-01 5.00000e-01 0.00000e+00
3.50000e-01 5.00000e-01 0.00000e+00
3.00000e-01 5.00000e-01 0.00000e+00
2.50000e-01 5.00000e-01 0.00000e+00
2.00000e-01 5.00000e-01 0.00000e+00
1.50000e-01 5.00000e-01 0.00000e+00
1.00000e-01 5.00000e-01 0.00000e+00
5.00000e-02 5.00000e-01 0.00000e+00
0.00000e+00 5.00000e-01 0.00000e+00
-5.00000e-02 5.00000e-01 0.00000e+00
-1.00000e-01 5.00000e-01 0.00000e+00
-1.50000e-01 5.00000e-01 0.00000e+00
-2.00000e-01 5.00000e-01 0.00000e+00
-2.50000e-01 5.00000e-01 0.00000e+00
-3.00000e-01 5.00000e-01 0.00000e+00
-3.50000e-01 5.00000e-01 0.00000e+00
-4.00000e-01 5.00000e-01 0.00000e+00
-4.50000e-01 5.00000e-01 0.00000e+00
-5.00000e-01 5.00000e-01 0.00000e+00
5.00000e-01 4.50000e-01 0.00000e+00
4.50000e-01 4.50000e-01 0.00000e+00
4.00000e-01 4.50000e-01 0.00000e+00
3.50000e-01 4.50000e-01 0.00000e+00
3.00000e-01 4.50000e-01 0.00000e+00
2.50000e-01 4.50000e-01 0.00000e+00
2.00000e-01 4.50000e-01 0.00000e+00
1.50000e-01 4.50000e-01 0.00000e+00
1.00000e-01 4.50000e-01 0.00000e+00
5.00000e-02 4.50000e-01 0.00000e+00
0.00000e+00 4.50000e-01 0.00000e+00
-5.00000e-02 4.50000e-01 0.00000e+00
-1.00000e-01 4.50000e-01 0.00000e+00
-1.50000e-01 4.50000e-01 0.00000e+00
-2.00000e-01 4.50000e-01 0.00000e+00
-2.50000e-01 4.50000e-01 0.00000e+00
-3.00000e-01 4.50000e-01 0.00000e+00
-3.50000e-01 4.50000e-01 0.00000e+00
-4.00000e-01 4.50000e-01 0.00000e+00
-4.50000e-01 4.50000e-01 0.00000e+00
-5.00000e-01 4.50000e-01 0.00000e+00
5.00000e-01 4.00000e-01 0.00000e+00
4.50000e-01 4.00000e-01 0.00000e+00
4.00000e-01 4.00000e-01 0.00000e+00
3.50000e-01 4.00000e-01 0.00000e+00
3.00000e-01 4.00000e-01 0.00000e+00
2.50000e-01 4.00000e-01 0.00000e+00
2.00000e-01 4.00000e-01 0.00000e+00
1.50000e-01 4.00000e-01 0.00000e+00
1.00000e-01 4.00000e-01 0.00000e+00
5.00000e-02 4.00000e-01 0.00000e+00
0.00000e+00 4.00000e-01 0.00000e+00
-5.00000e-02 4.00000e-01 0.00000e+00
-1.00000e-01 4.00000e-01 0.00000e+00
-1.50000e-01 4.00000e-01 0.00000e+00
-2.00000e-01 4.00000e-01 0.00000e+00
-2.50000e-01 4.00000e-01 0.00000e+00
-3.00000e-01 4.00000e-01 0.00000e+00
-3.50000e-01 4.00000e-01 0.00000e+00
-4.00000e-01 4.00000e-01 0.00000e+00
-4.50000e-01 4.00000e-01 0.00000e+00
-5.00000e-01 4.00000e-01 0.00000e+00
5.00000e-01 3.50000e-01 0.00000e+00
4.50000e-01 3.50000e-01 0.00000e+00
4.00000e-01 3.50000e-01 0.00000e+00
3.50000e-01 3.50000e-01 0.00000e+00
3.00000e-01 3.50000e-01 0.00000e+00
2.50000e-01 3.50000e-01 0.00000e+00
2.00000e-01 3.50000e-01 0.00000e+00
1.50000e-01 3.50000e-01 0.00000e+00
1.00000e-01 3.50000e-01 0.00000e+00
5.00000e-02 3.50000e-01 0.00000e+00
0.00000e+00 3.50000e-01 0.00000e+00
-5.00000e-02 3.50000e-01 0.00000e+00
-1.00000e-01 3.50000e-01 0.00000e+00
-1.50000e-01 3.50000e-01 0.00000e+00
-2.00000e-01 3.50000e-01 0.00000e+00
-2.50000e-01 3.50000e-01 0.00000e+00
-3.00000e-01 3.50000e-01 0.00000e+00
-3.50000e-01 3.50000e-01 0.00000e+00
-4.00000e-01 3.50000e-01 0.00000e+00
-4.50000e-01 3.50000e-01 0.00000e+00
-5.00000e-01 3.50000e-01 0.00000e+00
5.00000e-01 3.00000e-01 0.00000e+00
4.50000e-01 3.00000e-01 0.00000e+00
4.00000e-01 3.00000e-01 0.00000e+00
3.50000e-01 3.00000e-01 0.00000e+00
3.00000e-01 3.00000e-01 0.00000e+00
2.50000e-01 3.00000e-01 0.00000e+00
2.00000e-01 3.00000e-01 0.00000e+00
1.50000e-01 3.00000e-01 0.00000e+00
1.00000e-01 3.00000e-01 0.00000e+00
5.00000e-02 3.00000e-01 0.00000e+00
0.00000e+00 3.00000e-01 0.00000e+00
-5.00000e-02 3.00000e-01 0.00000e+00
-1.00000e-01 3.00000e-01 0.00000e+00
-1.50000e-01 3.00000e-01 0.00000e+00
-2.00000e-01 3.00000e-01 0.00000e+00
-2.50000e-01 3.00000e-01 0.00000e+00
-3.00000e-01 3.00000e-01 0.00000e+00
-3.50000e-01 3.00000e-01 0.00000e+00
-4.00000e-01 3.00000e-01 0.00000e+00
-4.50000e-01 3.00000e-01 0.00000e+00
-5.00000e-01 3.00000e-01 0.00000e+00
5.00000e-01 2.50000e-01 0.00000e+00
4.50000e-01 2.50000e-01 0.00000e+00
4.00000e-01 2.50000e-01 0.00000e+00
3.50000e-01 2.50000e-01 0.00000e+00
3.00000e-01 2.50000e-01 0.00000e+00
2.50000e-01 2.50000e-01 0.00000e+00
2.00000e-01 2.50000e-01 0.00000e+00
1.50000e-01 2.50000e-01 0.00000e+00
1.00000e-01 2.50000e-01 0.00000e+00
5.00000e-02 2.50000e-01 0.00000e+00
0.00000e+00 2.50000e-01 0.00000e+00
-5.00000e-02 2.50000e-01 0.00000e+00
-1.00000e-01 2.50000e-01 0.00000e+00
-1.50000e-01 2.50000e-01 0.00000e+00
-2.00000e-01 2.50000e-01 0.00000e+00
-2.50000e-01 2.50000e-01 0.00000e+00
-3.00000e-01 2.50000e-01 0.00000e+00
-3.50000e-01 2.50000e-01 0.00000e+00
-4.00000e-01 2.50000e-01 0.00000e+00
-4.50000e-01 2.50000e-01 0.00000e+00
-5.00000e-01 2.50000e-01 0.00000e+00
5.00000e-01 2.00000e-01 0.00000e+00
4.50000e-01 2.00000e-01 0.00000e+00
4.00000e-01 2.00000e-01 0.00000e+00
3.50000e-01 2.00000e-01 0.00000e+00
3.00000e-01 2.00000e-01 0.00000e+00
2.50000e-01 2.00000e-01 0.00000e+00
2.00000e-01 2.00000e-01 0.00000e+00
1.50000e-01 2.00000e-01 0.00000e+00
1.00000e-01 2.00000e-01 0.00000e+00
5.00000e-02 2.00000e-01 0.00000e+00
0.00000e+00 2.00000e-01 0.00000e+00
-5.00000e-02 2.00000e-01 0.00000e+00
-1.00000e-01 2.00000e-01 0.00000e+00
-1.50000e-01 2.00000e-01 0.00000e+00
-2.00000e-01 2.00000e-01 0.00000e+00
-2.50000e-01 2.00000e-01 0.00000e+00
-3.00000e-01 2.00000e-01 0.00000e+00
-3.50000e-01 2.00000e-01 0.00000e+00
-4.00000e-01 2.00000e-01 0.00000e+00
-4.50000e-01 2.00000e-01 0.00000e+00
-5.00000e-01 2.00000e-01 0.00000e+00
5.00000e-01 1.50000e-01 0.00000e+00
4.50000e-01 1.50000e-01 0.00000e+00
4.00000e-01 1.50000e-01 0.00000e+00
3.50000e-01 1.50000e-01 0.00000e+00
3.00000e-01 1.50000e-01 0.00000e+00
2.50000e-01 1.50000e-01 0.00000e+00
2.00000e-01 1.50000e-01 0.00000e+00
1.50000e-01 1.50000e-01 0.00000e+00
1.00000e-01 1.50000e-01 0.00000e+00
5.00000e-02 1.50000e-01 0.00000e+00
0.00000e+00 1.50000e-01 0.00000e+00
-5.00000e-02 1.50000e-01 0.00000e+00
-1.00000e-01 1.50000e-01 0.00000e+00
-1.50000e-01 1.50000e-01 0.00000e+00
-2.00000e-01 1.50000e-01 0.00000e+00
-2.50000e-01 1.50000e-01 0.00000e+00
-3.00000e-01 1.50000e-01 0.00000e+00
-3.50000e-01 1.50000e-01 0.00000e+00
-4.00000e-01 1.50000e-01 0.00000e+00
-4.50000e-01 1.50000e-01 0.00000e+00
-5.00000e-01 1.50000e-01 0.00000e+00
5.00000e-01 1.00000e-01 0.00000e+00
4.50000e-01 1.00000e-01 0.00000e+00
4.00000e-01 1.00000e-01 0.00000e+00
3.50000e-01 1.00000e-01 0.00000e+00
3.00000e-01 1.00000e-01 0.00000e+00
2.50000e-01 1.00000e-01 0.00000e+00
2.00000e-01 1.00000e-01 0.00000e+00
1.50000e-01 1.00000e-01 0.00000e+00
1.00000e-01 1.00000e-01 0.00000e+00
5.00000e-02 1.00000e-01 0.00000e+00
0.00000e+00 1.00000e-01 0.00000e+00
-5.00000e-02 1.00000e-01 0.00000e+00
-1.00000e-01 1.00000e-01 0.00000e+00
-1.50000e-01 1.00000e-01 0.00000e+00
-2.00000e-01 1.00000e-01 0.00000e+00
-2.50000e-01 1.00000e-01 0.00000e+00
-3.00000e-01 1.00000e-01 0.00000e+00
-3.50000e-01 1.00000e-01 0.00000e+00
-4.00000e-01 1.00000e-01 0.00000e+00
-4.50000e-01 1.00000e-01 0.00000e+00
-5.00000e-01 1.00000e-01 0.00000e+00
5.00000e-01 5.00000e-02 0.00000e+00
4.50000e-01 5.00000e-02 0.00000e+00
4.00000e-01 5.00000e-02 0.00000e+00
3.50000e-01 5.00000e-02 0.00000e+00
3.00000e-01 5.00000e-02 0.00000e+00
2.50000e-01 5.00000e-02 0.00000e+00
2.00000e-01 5.00000e-02 0.00000e+00
1.50000e-01 5.00000e-02 0.00000e+00
1.00000e-01 5.00000e-02 0.00000e+00
5.00000e-02 5.00000e-02 0.00000e+00
0.00000e+00 5.00000e-02 0.00000e+00
-5.00000e-02 5.00000e-02 0.00000e+00
-1.00000e-01 5.00000e-02 0.00000e+00
-1.50000e-01 5.00000e-02 0.00000e+00
-2.00000e-01 5.00000e-02 0.00000e+00
-2.50000e-01 5.00000e-02 0.00000e+00
-3.00000e-01 5.00000e-02 0.00000e+00
-3.50000e-01 5.00000e-02 0.00000e+00
-4.00000e-01 5.00000e-02 0.00000e+00
-4.50000e-01 5.00000e-02 0.00000e+00
-5.00000e-01 5.00000e-02 0.00000e+00
5.00000e-01 0.00000e+00 0.00000e+00
4.50000e-01 0.00000e+00 0.00000e+00
4.00000e-01 0.00000e+00 0.00000e+00
3.50000e-01 0.00000e+00 0.00000e+00
3.00000e-01 0.00000e+00 0.00000e+00
2.50000e-01 0.00000e+00 0.00000e+00
2.00000e-01 0.00000e+00 0.00000e+00
1.50000e-01 0.00000e+00 0.00000e+00
1.00000e-01 0.00000e+00 0.00000e+00
5.00000e-02 0.00000e+00 0.00000e+00
0.00000e+00 0.00000e+00 0.00000e+00
-5.00000e-02 0.00000e+00 0.00000e+00
-1.00000e-01 0.00000e+00 0.00000e+00
-1.50000e-01 0.00000e+00 0.00000e+00
-2.00000e-01 0.00000e+00 0.00000e+00
-2.50000e-01 0.00000e+00 0.00000e+00
-3.00000e-01 0.00000e+00 0.00000e+00
-3.50000e-01 0.00000e+00 0.00000e+00
-4.00000e-01 0.00000e+00 0.00000e+00
-4.50000e-01 0.00000e+00 0.00000e+00
-5.00000e-01 0.00000e+00 0.00000e+00
5.00000e-01 -5.00000e-02 0.00000e+00
4.50000e-01 -5.00000e-02 0.00000e+00
4.00000e-01 -5.00000e-02 0.00000e+00
3.50000e-01 -5.00000e-02 0.00000e+00
3.00000e-01 -5.00000e-02 0.00000e+00
2.50000e-01 -5.00000e-02 0.00000e+00
2.00000e-01 -5.00000e-02 0.00000e+00
1.50000e-01 -5.00000e-02 0.00000e+00
1.00000e-01 -5.00000e-02 0.00000e+00
5.00000e-02 -5.00000e-02 0.00000e+00
0.00000e+00 -5.00000e-02 0.00000e+00
-5.00000e-02 -5.00000e-02 0.00000e+00
-1.00000e-01 -5.00000e-02 0.00000e+00
-1.50000e-01 -5.00000e-02 0.00000e+00
-2.00000e-01 -5.00000e-02 0.00000e+00
-2.50000e-01 -5.00000e-02 0.00000e+00
-3.00000e-01 -5.00000e-02 0.00000e+00
-3.50000e-01 -5.00000e-02 0.00000e+00
-4.00000e-01 -5.00000e-02 0.00000e+00
-4.50000e-01 -5.00000e-02 0.00000e+00
-5.00000e-01 -5.00000e-02 0.00000e+00
5.00000e-01 -1.00000e-01 0.00000e+00
4.50000e-01 -1.00000e-01 0.00000e+00
4.00000e-01 -1.00000e-01 0.00000e+00
3.50000e-01 -1.00000e-01 0.00000e+00
3.00000e-01 -1.00000e-01 0.00000e+00
2.50000e-01 -1.00000e-01 0.00000e+00
2.00000e-01 -1.00000e-01 0.00000e+00
1.50000e-01 -1.00000e-01 0.00000e+00
1.00000e-01 -1.00000e-01 0.00000e+00
5.00000e-02 -1.00000e-01 0.00000e+00
0.00000e+00 -1.00000e-01 0.00000e+00
-5.00000e-02 -1.00000e-01 0.00000e+00
-1.00000e-01 -1.00000e-01 0.00000e+00
-1.50000e-01 -1.00000e-01 0.00000e+00
-2.00000e-01 -1.00000e-01 0.00000e+00
-2.50000e-01 -1.00000e-01 0.00000e+00
-3.00000e-01 -1.00000e-01 0.00000e+00
-3.50000e-01 -1.00000e-01 0.00000e+00
-4.00000e-01 -1.00000e-01 0.00000e+00
-4.50000e-01 -1.00000e-01 0.00000e+00
-5.00000e-01 -1.00000e-01 0.00000e+00
5.00000e-01 -1.50000e-01 0.00000e+00
4.50000e-01 -1.50000e-01 0.00000e+00
4.00000e-01 -1.50000e-01 0.00000e+00
3.50000e-01 -1.50000e-01 0.00000e+00
3.00000e-01 -1.50000e-01 0.00000e+00
2.50000e-01 -1.50000e-01 0.00000e+00
2.00000e-01 -1.50000e-01 0.00000e+00
1.50000e-01 -1.50000e-01 0.00000e+00
1.00000e-01 -1.50000e-01 0.00000e+00
5.00000e-02 -1.50000e-01 0.00000e+00
0.00000e+00 -1.50000e-01 0.00000e+00
-5.00000e-02 -1.50000e-01 0.00000e+00
-1.00000e-01 -1.50000e-01 0.00000e+00
-1.50000e-01 -1.50000e-01 0.00000e+00
-2.00000e-01 -1.50000e-01 0.00000e+00
-2.50000e-01 -1.50000e-01 0.00000e+00
-3.00000e-01 -1.50000e-01 0.00000e+00
-3.50000e-01 -1.50000e-01 0.00000e+00
-4.00000e-01 -1.50000e-01 0.00000e+00
-4.50000e-01 -1.50000e-01 0.00000e+00
-5.00000e-01 -1.50000e-01 0.00000e+00
5.00000e-01 -2.00000e-01 0.00000e+00
4.50000e-01 -2.00000e-01 0.00000e+00
4.00000e-01 -2.00000e-01 0.00000e+00
3.50000e-01 -2.00000e-01 0.00000e+00
3.00000e-01 -2.00000e-01 0.00000e+00
2.50000e-01 -2.00000e-01 0.00000e+00
2.00000e-01 -2.00000e-01 0.00000e+00
1.50000e-01 -2.00000e-01 0.00000e+00
1.00000e-01 -2.00000e-01 0.00000e+00
5.00000e-02 -2.00000e-01 0.00000e+00
0.00000e+00 -2.00000e-01 0.00000e+00
-5.00000e-02 -2.00000e-01 0.00000e+00
-1.00000e-01 -2.00000e-01 0.00000e+00
-1.50000e-01 -2.00000e-01 0.00000e+00
-2.00000e-01 -2.00000e-01 0.00000e+00
-2.50000e-01 -2.00000e-01 0.00000e+00
-3.00000e-01 -2.00000e-01 0.00000e+00
-3.50000e-01 -2.00000e-01 0.00000e+00
-4.00000e-01 -2.00000e-01 0.00000e+00
-4.50000e-01 -2.00000e-01 0.00000e+00
-5.00000e-01 -2.00000e-01 0.00000e+00
5.00000e-01 -2.50000e-01 0.00000e+00
4.50000e-01 -2.50000e-01 0.00000e+00
4.00000e-01 -2.50000e-01 0.00000e+00
3.50000e-01 -2.50000e-01 0.00000e+00
3.00000e-01 -2.50000e-01 0.00000e+00
2.50000e-01 -2.50000e-01 0.00000e+00
2.00000e-01 -2.50000e-01 0.00000e+00
1.50000e-01 -2.50000e-01 0.00000e+00
1.00000e-01 -2.50000e-01 0.00000e+00
5.00000e-02 -2.50000e-01 0.00000e+00
0.00000e+00 -2.50000e-01 0.00000e+00
-5.00000e-02 -2.50000e-01 0.00000e+00
-1.00000e-01 -2.50000e-01 0.00000e+00
-1.50000e-01 -2.50000e-01 0.00000e+00
-2.00000e-01 -2.50000e-01 0.00000e+00
-2.50000e-01 -2.50000e-01 0.00000e+00
-3.00000e-01 -2.50000e-01 0.00000e+00
-3.50000e-01 -2.50000e-01 0.00000e+00
-4.00000e-01 -2.50000e-01 0.00000e+00
-4.50000e-01 -2.50000e-01 0.00000e+00
-5.00000e-01 -2.50000e-01 0.00000e+00
5.00000e-01 -3.00000e-01 0.00000e+00
4.50000e-01 -3.00000e-01 0.00000e+00
4.00000e-01 -3.00000e-01 0.00000e+00
3.50000e-01 -3.00000e-01 0.00000e+00
3.00000e-01 -3.00000e-01 0.00000e+00
2.50000e-01 -3.00000e-01 0.00000e+00
2.00000e-01 -3.00000e-01 0.00000e+00
1.50000e-01 -3.00000e-01 0.00000e+00
1.00000e-01 -3.00000e-01 0.00000e+00
5.00000e-02 -3.00000e-01 0.00000e+00
0.00000e+00 -3.00000e-01 0.00000e+00
-5.00000e-02 -3.00000e-01 0.00000e+00
-1.00000e-01 -3.00000e-01 0.00000e+00
-1.50000e-01 -3.00000e-01 0.00000e+00
-2.00000e-01 -3.00000e-01 0.00000e+00
-2.50000e-01 -3.00000e-01 0.00000e+00
-3.00000e-01 -3.00000e-01 0.00000e+00
-3.50000e-01 -3.00000e-01 0.00000e+00
-4.00000e-01 -3.00000e-01 0.00000e+00
-4.50000e-01 -3.00000e-01 0.00000e+00
-5.00000e-01 -3.00000e-01 0.00000e+00
5.00000e-01 -3.50000e-01 0.00000e+00
4.50000e-01 -3.50000e-01 0.00000e+00
4.00000e-01 -3.50000e-01 0.00000e+00
3.50000e-01 -3.50000e-01 0.00000e+00
3.00000e-01 -3.50000e-01 0.00000e+00
2.50000e-01 -3.50000e-01 0.00000e+00
2.00000e-01 -3.50000e-01 0.00000e+00
1.50000e-01 -3.50000e-01 0.00000e+00
1.00000e-01 -3.50000e-01 0.00000e+00
5.00000e-02 -3.50000e-01 0.00000e+00
0.00000e+00 -3.50000e-01 0.00000e+00
-5.00000e-02 -3.50000e-01 0.00000e+00
-1.00000e-01 -3.50000e-01 0.00000e+00
-1.50000e-01 -3.50000e-01 0.00000e+00
-2.00000e-01 -3.50000e-01 0.00000e+00
-2.50000e-01 -3.50000e-01 0.00000e+00
-3.00000e-01 -3.50000e-01 0.00000e+00
-3.50000e-01 -3.50000e-01 0.00000e+00
-4.00000e-01 -3.50000e-01 0.00000e+00
-4.50000e-01 -3.50000e-01 0.00000e+00
-5.00000e-01 -3.50000e-01 0.00000e+00
5.00000e-01 -4.00000e-01 0.00000e+00
4.50000e-01 -4.00000e-01 0.00000e+00
4.00000e-01 -4.00000e-01 0.00000e+00
3.50000e-01 -4.00000e-01 0.00000e+00
3.00000e-01 -4.00000e-01 0.00000e+00
2.50000e-01 -4.00000e-01 0.00000e+00
2.00000e-01 -4.00000e-01 0.00000e+00
1.50000e-01 -4.00000e-01 0.00000e+00
1.00000e-01 -4.00000e-01 0.00000e+00
5.00000e-02 -4.00000e-01 0.00000e+00
0.00000e+00 -4.00000e-01 0.00000e+00
-5.00000e-02 -4.00000e-01 0.00000e+00
-1.00000e-01 -4.00000e-01 0.00000e+00
-1.50000e-01 -4.00000e-01 0.00000e+00
-2.00000e-01 -4.00000e-01 0.00000e+00
-2.50000e-01 -4.00000e-01 0.00000e+00
-3.00000e-01 -4.00000e-01 0.00000e+00
-3.50000e-01 -4.00000e-01 0.00000e+00
-4.00000e-01 -4.00000e-01 0.00000e+00
-4.50000e-01 -4.00000e-01 0.00000e+00
-5.00000e-01 -4.00000e-01 0.00000e+00
5.00000e-01 -4.50000e-01 0.00000e+00
4.50000e-01 -4.50000e-01 0.00000e+00
4.00000e-01 -4.50000e-01 0.00000e+00
3.50000e-01 -4.50000e-01 0.00000e+00
3.00000e-01 -4.50000e-01 0.00000e+00
2.50000e-01 -4.50000e-01 0.00000e+00
2.00000e-01 -4.50000e-01 0.00000e+00
1.50000e-01 -4.50000e-01 0.00000e+00
1.00000e-01 -4.50000e-01 0.00000e+00
5.00000e-02 -4.50000e-01 0.00000e+00
0.00000e+00 -4.50000e-01 0.00000e+00
-5.00000e-02 -4.50000e-01 0.00000e+00
-1.00000e-01 -4.50000e-01 0.00000e+00
-1.50000e-01 -4.50000e-01 0.00000e+00
-2.00000e-01 -4.50000e-01 0.00000e+00
-2.50000e-01 -4.50000e-01 0.00000e+00
-3.00000e-01 -4.50000e-01 0.00000e+00
-3.50000e-01 -4.50000e-01 0.00000e+00
-4.00000e-01 -4.50000e-01 0.00000e+00
-4.50000e-01 -4.50000e-01 0.00000e+00
-5.00000e-01 -4.50000e-01 0.00000e+00
5.00000e-01 -5.00000e-01 0.00000e+00
4.50000e-01 -5.00000e-01 0.00000e+00
4.00000e-01 -5.00000e-01 0.00000e+00
3.50000e-01 -5.00000e-01 0.00000e+00
3.00000e-01 -5.00000e-01 0.00000e+00
2.50000e-01 -5.00000e-01 0.00000e+00
2.00000e-01 -5.00000e-01 0.00000e+00
1.50000e-01 -5.00000e-01 0.00000e+00
1.00000e-01 -5.00000e-01 0.00000e+00
5.00000e-02 -5.00000e-01 0.00000e+00
0.00000e+00 -5.00000e-01 0.00000e+00
-5.00000e-02 -5.00000e-01 0.00000e+00
-1.00000e-01 -5.00000e-01 0.00000e+00
-1.50000e-01 -5.00000e-01 0.00000e+00
-2.00000e-01 -5.00000e-01 0.00000e+00
-2.50000e-01 -5.00000e-01 0.00000e+00
-3.00000e-01 -5.00000e-01 0.00000e+00
-3.50000e-01 -5.00000e-01 0.00000e+00
-4.00000e-01 -5.00000e-01 0.00000e+00
-4.50000e-01 -5.00000e-01 0.00000e+00
-5.00000e-01 -5.00000e-01 0.00000e+00
</DataArray>
</Points>
<Cells>
<DataArray Name="connectivity" type="Int32" format="ascii">
0 1 22 21
1 2 23 22
2 3 24 23
3 4 25 24
4 5 26 25
5 6 27 26
6 7 28 27
7 8 29 28
8 9 30 29
9 10 31 30
10 11 32 31
11 12 33 32
12 13 34 33
13 14 35 34
14 15 36 35
15 16 37 36
16 17 38 37
17 18 39 38
18 19 40 39
19 20 41 40
21 22 43 42
22 23 44 43
23 24 45 44
24 25 46 45
25 26 47 46
26 27 48 47
27 28 49 48
28 29 50 49
29 30 51 50
30 31 52 51
31 32 53 52
32 33 54 53
33 34 55 54
34 35 56 55
35 36 57 56
36 37 58 57
37 38 59 58
38 39 60 59
39 40 61 60
40 41 62 61
42 43 64 63
43 44 65 64
44 45 66 65
45 46 67 66
46 47 68 67
47 48 69 68
48 49 70 69
49 50 71 70
50 51 72 71
51 52 73 72
52 53 74 73
53 54 75 74
54 55 76 75
55 56 77 76
56 57 78 77
57 58 79 78
58 59 80 79
59 60 81 80
60 61 82 81
61 62 83 82
63 64 85 84
64 65 86 85
65 66 87 86
66 67 88 87
67 68 89 88
68 69 90 89
69 70 91 90
70 71 92 91
71 72 93 92
72 73 94 93
73 74 95 94
74 75 96 95
75 76 97 96
76 77 98 97
77 78 99 98
78 79 100 99
79 80 101 100
80 81 102 101
81 82 103 102
82 83 104 103
84 85 106 105
85 86 107 106
86 87 108 107
87 88 109 108
88 89 110 109
89 90 111 110
90 91 112 111
91 92 113 112
92 93 114 113
93 94 115 114
94 95 116 115
95 96 117 116
96 97 118 117
97 98 119 118
98 99 120 119
99 100 121 120
100 101 122 121
101 102 123 122
102 103 124 123
103 104 125 124
105 106 127 126
106 107 128 127
107 108 129 128
108 109 130 129
109 110 131 130
110 111 132 131
111 112 133 132
112 113 134 133
113 114 135 134
114 115 136 135
115 116 137 136
116 117 138 137
117 118 139 138
118 119 140 139
119 120 141 140
120 121 142 141
121 122 143 142
122 123 144 143
123 124 145 144
124 125 146 145
126 127 148 147
127 128 149 148
128 129 150 149
129 130 151 150
130 131 152 151
131 132 153 152
132 133 154 153
133 134 155 154
134 135 156 155
135 136 157 156
136 137 158 157
137 138 159 158
138 139 160 159
139 140 161 160
140 141 162 161
141 142 163 162
142 143 164 163
143 144 165 164
144 145 166 165
145 146 167 166
147 148 169 168
148 149 170 169
149 150 171 170
150 151 172 171
151 152 173 172
152 153 174 173
153 154 175 174
154 155 176 175
155 156 177 176
156 157 178 177
157 158 179 178
158 159 180 179
159 160 181 180
160 161 182 181
161 162 183 182
162 163 184 183
163 164 185 184
164 165 186 185
165 166 187 186
166 167 188 187
168 169 190 189
169 170 191 190
170 171 192 191
171 172 193 192
172 173 194 193
173 174 195 194
174 175 196 195
175 176 197 196
176 177 198 197
177 178 199 198
178 179 200 199
179 180 201 200
180 181 202 201
181 182 203 202
182 183 204 203
183 184 205 204
184 185 206 205
185 186 207 206
186 187 208 207
187 188 209 208
189 190 211 210
190 191 212 211
191 192 213 212
192 193 214 213
193 194 215 214
194 195 216 215
195 196 217 216
196 197 218 217
197 198 219 218
198 199 220 219
199 200 221 220
200 201 222 221
201 202 223 222
202 203 224 223
203 204 225 224
204 205 226 225
205 206 227 226
206 207 228 227
207 208 229 228
208 209 230 229
210 211 232 231
211 212 233 232
212 213 234 233
213 214 235 234
214 215 236 235
215 216 237 236
216 217 238 237
217 218 239 238
218 219 240 239
219 220 241 240
220 221 242 241
221 222 243 242
222 223 244 243
223 224 245 244
224 225 246 245
225 226 247 246
226 227 248 247
227 228 249 248
228 229 250 249
229 230 251 250
231 232 253 252
232 233 254 253
233 234 255 254
234 235 256 255
235 236 257 256
236 237 258 257
237 238 259 258
238 239 260 259
239 240 261 260
240 241 262 261
241 242 263 262
242 243 264 263
243 244 265 264
244 245 266 265
245 246 267 266
246 247 268 267
247 248 269 268
248 249 270 269
249 250 271 270
250 251 272 271
252 253 274 273
253 254 275 274
254 255 276 275
255 256 277 276
256 257 278 277
257 258 279 278
258 259 280 279
259 260 281 280
260 261 282 281
261 262 283 282
262 263 284 283
263 264 285 284
264 265 286 285
265 266 287 286
266 267 288 287
267 268 289 288
268 269 290 289
269 270 291 290
270 271 292 291
271 272 293 292
273 274 295 294
274 275 296 295
275 276 297 296
276 277 298 297
277 278 299 298
278 279 300 299
279 280 301 300
280 281 302 301
281 282 303 302
282 283 304 303
283 284 305 304
284 285 306 305
285 286 307 306
286 287 308 307
287 288 309 308
288 289 310 309
289 290 311 310
290 291 312 311
291 292 313 312
292 293 314 313
294 295 316 315
295 296 317 316
296 297 318 317
297 298 319 318
298 299 320 319
299 300 321 320
300 301 322 321
301 302 323 322
302 303 324 323
303 304 325 324
304 305 326 325
305 306 327 326
306 307 328 327
307 308 329 328
308 309 330 329
309 310 331 330
310 311 332 331
311 312 333 332
312 313 334 333
313 314 335 334
315 316 337 336
316 317 338 337
317 318 339 338
318 319 340 339
319 320 341 340
320 321 342 341
321 322 343 342
322 323 344 343
323 324 345 344
324 325 346 345
325 326 347 346
326 327 348 347
327 328 349 348
328 329 350 349
329 330 351 350
330 331 352 351
331 332 353 352
332 333 354 353
333 334 355 354
334 335 356 355
336 337 358 357
337 338 359 358
338 339 360 359
339 340 361 360
340 341 362 361
341 342 363 362
342 343 364 363
343 344 365 364
344 345 366 365
345 346 367 366
346 347 368 367
347 348 369 368
348 349 370 369
349 350 371 370
350 351 372 371
351 352 373 372
352 353 374 373
353 354 375 374
354 355 376 375
355 356 377 376
357 358 379 378
358 359 380 379
359 360 381 380
360 361 382 381
361 362 383 382
362 363 384 383
363 364 385 384
364 365 386 385
365 366 387 386
366 367 388 387
367 368 389 388
368 369 390 389
369 370 391 390
370 371 392 391
371 372 393 392
372 373 394 393
373 374 395 394
374 375 396 395
375 376 397 396
376 377 398 397
378 379 400 399
379 380 401 400
380 381 402 401
381 382 403 402
382 383 404 403
383 384 405 404
384 385 406 405
385 386 407 406
386 387 408 407
387 388 409 408
388 389 410 409
389 390 411 410
390 391 412 411
391 392 413 412
392 393 414 413
393 394 415 414
394 395 416 415
395 396 417 416
396 397 418 417
397 398 419 418
399 400 421 420
400 401 422 421
401 402 423 422
402 403 424 423
403 404 425 424
404 405 426 425
405 406 427 426
406 407 428 427
407 408 429 428
408 409 430 429
409 410 431 430
410 411 432 431
411 412 433 432
412 413 434 433
413 414 435 434
414 415 436 435
415 416 437 436
416 417 438 437
417 418 439 438
418 419 440 439
</DataArray>
<DataArray Name="offsets" type="Int32" format="ascii">
4
8
12
16
20
24
28
32
36
40
44
48
52
56
60
64
68
72
76
80
84
88
92
96
100
104
108
112
116
120
124
128
132
136
140
144
148
152
156
160
164
168
172
176
180
184
188
192
196
200
204
208
212
216
220
224
228
232
236
240
244
248
252
256
260
264
268
272
276
280
284
288
292
296
300
304
308
312
316
320
324
328
332
336
340
344
348
352
356
360
364
368
372
376
380
384
388
392
396
400
404
408
412
416
420
424
428
432
436
440
444
448
452
456
460
464
468
472
476
480
484
488
492
496
500
504
508
512
516
520
524
528
532
536
540
544
548
552
556
560
564
568
572
576
580
584
588
592
596
600
604
608
612
616
620
624
628
632
636
640
644
648
652
656
660
664
668
672
676
680
684
688
692
696
700
704
708
712
716
720
724
728
732
736
740
744
748
752
756
760
764
768
772
776
780
784
788
792
796
800
804
808
812
816
820
824
828
832
836
840
844
848
852
856
860
864
868
872
876
880
884
888
892
896
900
904
908
912
916
920
924
928
932
936
940
944
948
952
956
960
964
968
972
976
980
984
988
992
996
1000
1004
1008
1012
1016
1020
1024
1028
1032
1036
1040
1044
1048
1052
1056
1060
1064
1068
1072
1076
1080
1084
1088
1092
1096
1100
1104
1108
1112
1116
1120
1124
1128
1132
1136
1140
1144
1148
1152
1156
1160
1164
1168
1172
1176
1180
1184
1188
1192
1196
1200
1204
1208
1212
1216
1220
1224
1228
1232
1236
1240
1244
1248
1252
1256
1260
1264
1268
1272
1276
1280
1284
1288
1292
1296
1300
1304
1308
1312
1316
1320
1324
1328
1332
1336
1340
1344
1348
1352
1356
1360
1364
1368
1372
1376
1380
1384
1388
1392
1396
1400
1404
1408
1412
1416
1420
1424
1428
1432
1436
1440
1444
1448
1452
1456
1460
1464
1468
1472
1476
1480
1484
1488
1492
1496
1500
1504
1508
1512
1516
1520
1524
1528
1532
1536
1540
1544
1548
1552
1556
1560
1564
1568
1572
1576
1580
1584
1588
1592
1596
1600
</DataArray>
<DataArray Name="types" type="UInt8" format="ascii">
9
9
9
9
9
9
9
9
9
9
9
9
9
9
9
9
9
9
9
9
9
9
9
9
9
9
9
9
9
9
9
9
9
9
9
9
9
9
9
9
9
9
9
9
9
9
9
9
9
9
9
9
9
9
9
9
9
9
9
9
9
9
9
9
9
9
9
9
9
9
9
9
9
9
9
9
9
9
9
9
9
9
9
9
9
9
9
9
9
9
9
9
9
9
9
9
9
9
9
9
9
9
9
9
9
9
9
9
9
9
9
9
9
9
9
9
9
9
9
9
9
9
9
9
9
9
9
9
9
9
9
9
9
9
9
9
9
9
9
9
9
9
9
9
9
9
9
9
9
9
9
9
9
9
9
9
9
9
9
9
9
9
9
9
9
9
9
9
9
9
9
9
9
9
9
9
9
9
9
9
9
9
9
9
9
9
9
9
9
9
9
9
9
9
9
9
9
9
9
9
9
9
9
9
9
9
9
9
9
9
9
9
9
9
9
9
9
9
9
9
9
9
9
9
9
9
9
9
9
9
9
9
9
9
9
9
9
9
9
9
9
9
9
9
9
9
9
9
9
9
9
9
9
9
9
9
9
9
9
9
9
9
9
9
9
9
9
9
9
9
9
9
9
9
9
9
9
9
9
9
9
9
9
9
9
9
9
9
9
9
9
9
9
9
9
9
9
9
9
9
9
9
9
9
9
9
9
9
9
9
9
9
9
9
9
9
9
9
9
9
9
9
9
9
9
9
9
9
9
9
9
9
9
9
9
9
9
9
9
9
9
9
9
9
9
9
9
9
9
9
9
9
9
9
9
9
9
9
9
9
9
9
9
9
9
9
9
9
9
9
9
9
9
9
9
9
9
9
9
9
9
9
9
9
9
9
9
9
9
9
9
9
9
9
9
9
9
9
9
9
</DataArray>
</Cells>
<PointData>
<DataArray Name="Mises" type="Float32" format="ascii">
0.00000e+00
0.00000e+00
0.00000e+00
0.00000e+00
0.00000e+00
0.00000e+00
0.00000e+00
0.00000e+00
0.00000e+00
0.00000e+00
0.00000e+00
0.00000e+00
0.00000e+00
0.00000e+00
0.00000e+00
0.00000e+00
0.00000e+00
0.00000e+00
0.00000e+00
0.00000e+00
0.00000e+00
0.00000e+00
0.00000e+00
0.00000e+00
0.00000e+00
0.00000e+00
0.00000e+00
0.00000e+00
0.00000e+00
0.00000e+00
0.00000e+00
0.00000e+00
0.00000e+00
0.00000e+00
0.00000e+00
0.00000e+00
0.00000e+00
0.00000e+00
0.00000e+00
0.00000e+00
0.00000e+00
0.00000e+00
0.00000e+00
0.00000e+00
0.00000e+00
0.00000e+00
0.00000e+00
0.00000e+00
0.00000e+00
0.00000e+00
0.00000e+00
0.00000e+00
0.00000e+00
0.00000e+00
0.00000e+00
0.00000e+00
0.00000e+00
0.00000e+00
0.00000e+00
0.00000e+00
0.00000e+00
0.00000e+00
0.00000e+00
0.00000e+00
0.00000e+00
0.00000e+00
0.00000e+00
0.00000e+00
0.00000e+00
0.00000e+00
0.00000e+00
0.00000e+00
0.00000e+00
0.00000e+00
0.00000e+00
0.00000e+00
0.00000e+00
0.00000e+00
0.00000e+00
0.00000e+00
0.00000e+00
0.00000e+00
0.00000e+00
0.00000e+00
0.00000e+00
0.00000e+00
0.00000e+00
0.00000e+00
0.00000e+00
0.00000e+00
0.00000e+00
0.00000e+00
0.00000e+00
0.00000e+00
0.00000e+00
0.00000e+00
0.00000e+00
0.00000e+00
0.00000e+00
0.00000e+00
0.00000e+00
0.00000e+00
0.00000e+00
0.00000e+00
0.00000e+00
0.00000e+00
0.00000e+00
0.00000e+00
0.00000e+00
0.00000e+00
0.00000e+00
0.00000e+00
0.00000e+00
0.00000e+00
0.00000e+00
0.00000e+00
0.00000e+00
0.00000e+00
0.00000e+00
0.00000e+00
0.00000e+00
0.00000e+00
0.00000e+00
0.00000e+00
0.00000e+00
0.00000e+00
0.00000e+00
0.00000e+00
0.00000e+00
0.00000e+00
0.00000e+00
0.00000e+00
0.00000e+00
0.00000e+00
0.00000e+00
0.00000e+00
0.00000e+00
0.00000e+00
0.00000e+00
0.00000e+00
0.00000e+00
0.00000e+00
0.00000e+00
0.00000e+00
0.00000e+00
0.00000e+00
0.00000e+00
0.00000e+00
0.00000e+00
0.00000e+00
0.00000e+00
0.00000e+00
0.00000e+00
0.00000e+00
0.00000e+00
0.00000e+00
0.00000e+00
0.00000e+00
0.00000e+00
0.00000e+00
0.00000e+00
0.00000e+00
0.00000e+00
0.00000e+00
0.00000e+00
0.00000e+00
0.00000e+00
0.00000e+00
0.00000e+00
0.00000e+00
0.00000e+00
0.00000e+00
0.00000e+00
0.00000e+00
0.00000e+00
0.00000e+00
0.00000e+00
0.00000e+00
0.00000e+00
0.00000e+00
0.00000e+00
0.00000e+00
0.00000e+00
0.00000e+00
0.00000e+00
0.00000e+00
0.00000e+00
0.00000e+00
0.00000e+00
0.00000e+00
0.00000e+00
0.00000e+00
0.00000e+00
0.00000e+00
0.00000e+00
0.00000e+00
0.00000e+00
0.00000e+00
0.00000e+00
0.00000e+00
0.00000e+00
0.00000e+00
0.00000e+00
0.00000e+00
0.00000e+00
0.00000e+00
0.00000e+00
0.00000e+00
0.00000e+00
0.00000e+00
0.00000e+00
0.00000e+00
0.00000e+00
0.00000e+00
0.00000e+00
0.00000e+00
0.00000e+00
0.00000e+00
0.00000e+00
0.00000e+00
0.00000e+00
0.00000e+00
0.00000e+00
0.00000e+00
0.00000e+00
0.00000e+00
0.00000e+00
0.00000e+00
0.00000e+00
0.00000e+00
0.00000e+00
0.00000e+00
0.00000e+00
0.00000e+00
0.00000e+00
0.00000e+00
0.00000e+00
0.00000e+00
0.00000e+00
0.00000e+00
0.00000e+00
0.00000e+00
0.00000e+00
0.00000e+00
0.00000e+00
0.00000e+00
0.00000e+00
0.00000e+00
0.00000e+00
0.00000e+00
0.00000e+00
0.00000e+00
0.00000e+00
0.00000e+00
0.00000e+00
0.00000e+00
0.00000e+00
0.00000e+00
0.00000e+00
0.00000e+00
0.00000e+00
0.00000e+00
0.00000e+00
0.00000e+00
0.00000e+00
0.00000e+00
0.00000e+00
0.00000e+00
0.00000e+00
0.00000e+00
0.00000e+00
0.00000e+00
0.00000e+00
0.00000e+00
0.00000e+00
0.00000e+00
0.00000e+00
0.00000e+00
0.00000e+00
0.00000e+00
0.00000e+00
0.00000e+00
0.00000e+00
0.00000e+00
0.00000e+00
0.00000e+00
0.00000e+00
0.00000e+00
0.00000e+00
0.00000e+00
0.00000e+00
0.00000e+00
0.00000e+00
0.00000e+00
0.00000e+00
0.00000e+00
0.00000e+00
0.00000e+00
0.00000e+00
0.00000e+00
0.00000e+00
0.00000e+00
0.00000e+00
0.00000e+00
0.00000e+00
0.00000e+00
0.00000e+00
0.00000e+00
0.00000e+00
0.00000e+00
0.00000e+00
0.00000e+00
0.00000e+00
0.00000e+00
0.00000e+00
0.00000e+00
0.00000e+00
0.00000e+00
0.00000e+00
0.00000e+00
0.00000e+00
0.00000e+00
0.00000e+00
0.00000e+00
0.00000e+00
0.00000e+00
0.00000e+00
0.00000e+00
0.00000e+00
0.00000e+00
0.00000e+00
0.00000e+00
0.00000e+00
0.00000e+00
0.00000e+00
0.00000e+00
0.00000e+00
0.00000e+00
0.00000e+00
0.00000e+00
0.00000e+00
0.00000e+00
0.00000e+00
0.00000e+00
0.00000e+00
0.00000e+00
0.00000e+00
0.00000e+00
0.00000e+00
0.00000e+00
0.00000e+00
0.00000e+00
0.00000e+00
0.00000e+00
0.00000e+00
0.00000e+00
0.00000e+00
0.00000e+00
0.00000e+00
0.00000e+00
0.00000e+00
0.00000e+00
0.00000e+00
0.00000e+00
0.00000e+00
0.00000e+00
0.00000e+00
0.00000e+00
0.00000e+00
0.00000e+00
0.00000e+00
0.00000e+00
0.00000e+00
0.00000e+00
0.00000e+00
0.00000e+00
0.00000e+00
0.00000e+00
0.00000e+00
0.00000e+00
0.00000e+00
0.00000e+00
0.00000e+00
0.00000e+00
0.00000e+00
0.00000e+00
0.00000e+00
0.00000e+00
0.00000e+00
0.00000e+00
0.00000e+00
0.00000e+00
0.00000e+00
0.00000e+00
0.00000e+00
0.00000e+00
0.00000e+00
0.00000e+00
0.00000e+00
0.00000e+00
0.00000e+00
0.00000e+00
0.00000e+00
0.00000e+00
0.00000e+00
0.00000e+00
0.00000e+00
0.00000e+00
0.00000e+00
0.00000e+00
0.00000e+00
0.00000e+00
0.00000e+00
0.00000e+00
0.00000e+00
0.00000e+00
0.00000e+00
0.00000e+00
0.00000e+00
0.00000e+00
0.00000e+00
0.00000e+00
0.00000e+00
0.00000e+00
0.00000e+00
0.00000e+00
0.00000e+00
0.00000e+00
0.00000e+00
0.00000e+00
0.00000e+00
0.00000e+00
0.00000e+00
0.00000e+00
0.00000e+00
0.00000e+00
0.00000e+00
0.00000e+00
0.00000e+00
0.00000e+00
0.00000e+00
</DataArray>
<DataArray Name="Disp" type="Float32" NumberOfComponents="3" format="ascii">
0.00000e+00 0.00000e+00 0.00000e+00
0.00000e+00 0.00000e+00 0.00000e+00
0.00000e+00 0.00000e+00 0.00000e+00
0.00000e+00 0.00000e+00 0.00000e+00
0.00000e+00 0.00000e+00 0.00000e+00
0.00000e+00 0.00000e+00 0.00000e+00
0.00000e+00 0.00000e+00 0.00000e+00
0.00000e+00 0.00000e+00 0.00000e+00
0.00000e+00 0.00000e+00 0.00000e+00
0.00000e+00 0.00000e+00 0.00000e+00
0.00000e+00 0.00000e+00 0.00000e+00
0.00000e+00 0.00000e+00 0.00000e+00
0.00000e+00 0.00000e+00 0.00000e+00
0.00000e+00 0.00000e+00 0.00000e+00
0.00000e+00 0.00000e+00 0.00000e+00
0.00000e+00 0.00000e+00 0.00000e+00
0.00000e+00 0.00000e+00 0.00000e+00
0.00000e+00 0.00000e+00 0.00000e+00
0.00000e+00 0.00000e+00 0.00000e+00
0.00000e+00 0.00000e+00 0.00000e+00
0.00000e+00 0.00000e+00 0.00000e+00
0.00000e+00 0.00000e+00 0.00000e+00
2.30057e-14 3.60441e-15 -9.21179e-05
9.20210e-15 -2.37878e-15 -3.47833e-04
-6.85731e-15 5.12947e-15 -6.93413e-04
2.59622e-15 -1.27280e-15 -1.05735e-03
1.52103e-14 3.21115e-15 -1.40079e-03
-1.77773e-14 -3.77770e-16 -1.70006e-03
-8.70755e-15 2.23504e-15 -1.94172e-03
1.87824e-14 -2.78862e-15 -2.11817e-03
1.87045e-14 -1.48038e-15 -2.22530e-03
2.04787e-14 -1.00829e-15 -2.26121e-03
1.65893e-14 3.08305e-15 -2.22532e-03
2.18322e-14 -2.07241e-15 -2.11818e-03
2.00962e-14 4.34542e-15 -1.94174e-03
3.19604e-15 -2.28883e-15 -1.70007e-03
8.97707e-15 -1.48577e-15 -1.40080e-03
6.95116e-15 -1.49843e-15 -1.05737e-03
2.14515e-15 7.76778e-16 -6.93418e-04
-1.03762e-14 1.22566e-15 -3.47839e-04
2.03105e-14 -1.61200e-15 -9.21170e-05
0.00000e+00 0.00000e+00 0.00000e+00
0.00000e+00 0.00000e+00 0.00000e+00
-1.19831e-14 -3.37038e-15 -3.47828e-04
9.98485e-15 5.66096e-15 -1.25450e-03
-3.67525e-14 1.24455e-15 -2.45827e-03
2.77695e-14 1.06881e-14 -3.74199e-03
1.63505e-14 7.31426e-16 -4.96376e-03
1.41093e-14 5.86142e-15 -6.03669e-03
-8.19624e-15 -4.24135e-15 -6.90790e-03
2.33969e-14 -5.80187e-15 -7.54649e-03
3.42238e-14 -1.64866e-15 -7.93532e-03
2.67643e-14 8.05627e-16 -8.06577e-03
1.54866e-14 -2.68133e-15 -7.93533e-03
-8.05618e-15 5.14325e-15 -7.54652e-03
1.06236e-14 6.16339e-16 -6.90792e-03
-1.79495e-14 6.17245e-15 -6.03675e-03
-5.28286e-15 -5.18580e-15 -4.96383e-03
-5.79296e-15 -3.10858e-15 -3.74205e-03
9.73436e-15 -2.12641e-15 -2.45831e-03
3.12774e-14 3.58584e-16 -1.25450e-03
-2.48836e-15 3.62917e-16 -3.47826e-04
0.00000e+00 0.00000e+00 0.00000e+00
0.00000e+00 0.00000e+00 0.00000e+00
1.96546e-14 -1.12666e-15 -6.93411e-04
-8.06114e-15 6.48105e-16 -2.45827e-03
1.39226e-14 1.18847e-14 -4.77612e-03
-4.93288e-15 -5.28462e-16 -7.26342e-03
4.15766e-14 1.01022e-14 -9.65085e-03
-3.01278e-15 -2.30759e-15 -1.17623e-02
-1.84504e-16 -3.04176e-15 -1.34865e-02
1.91071e-14 -7.36976e-15 -1.47556e-02
1.10617e-14 -3.07305e-16 -1.55304e-02
2.27262e-14 -4.67268e-15 -1.57907e-02
-8.60559e-15 4.13976e-15 -1.55304e-02
-1.36248e-15 3.53112e-15 -1.47557e-02
-1.16065e-14 7.25656e-15 -1.34866e-02
2.23967e-14 -1.34809e-15 -1.17623e-02
1.48988e-14 -1.09788e-15 -9.65094e-03
3.26863e-14 -9.97636e-15 -7.26353e-03
5.98866e-16 -3.32825e-15 -4.77619e-03
4.21548e-15 -1.92827e-16 -2.45831e-03
3.32361e-14 1.90287e-15 -6.93419e-04
0.00000e+00 0.00000e+00 0.00000e+00
0.00000e+00 0.00000e+00 0.00000e+00
-6.52612e-15 1.31933e-15 -1.05735e-03
7.96151e-15 1.47949e-15 -3.74199e-03
-1.73374e-14 4.03563e-16 -7.26343e-03
3.87483e-14 9.63385e-15 -1.10543e-02
-3.26323e-14 5.25300e-15 -1.47137e-02
2.79513e-14 4.23263e-15 -1.79679e-02
1.65936e-14 -7.92053e-15 -2.06375e-02
1.13321e-14 -9.31362e-17 -2.26092e-02
-1.03308e-14 -8.28778e-15 -2.38157e-02
-2.97008e-14 -9.17310e-16 -2.42215e-02
2.17515e-14 1.21783e-15 -2.38157e-02
-2.26449e-14 5.93955e-15 -2.26093e-02
3.65335e-14 3.74237e-15 -2.06376e-02
1.71342e-14 6.65996e-17 -1.79680e-02
2.36048e-14 -3.54131e-15 -1.47138e-02
-1.09850e-14 -7.83792e-15 -1.10544e-02
1.67404e-14 -4.81769e-15 -7.26350e-03
1.61176e-14 -9.20398e-16 -3.74204e-03
1.69445e-14 -6.75215e-16 -1.05736e-03
0.00000e+00 0.00000e+00 0.00000e+00
0.00000e+00 0.00000e+00 0.00000e+00
-1.51048e-14 -1.42814e-15 -1.40078e-03
-3.36013e-14 3.44341e-15 -4.96376e-03
-3.86534e-14 3.46152e-15 -9.65083e-03
-6.10311e-14 6.08411e-16 -1.47137e-02
-5.09742e-15 9.13495e-15 -1.96205e-02
2.49680e-14 -1.79531e-15 -2.40016e-02
3.46208e-16 3.43286e-15 -2.76080e-02
-1.84857e-14 -7.92594e-15 -3.02789e-02
1.01633e-14 -4.29485e-15 -3.19161e-02
-2.12531e-14 -7.32231e-15 -3.24673e-02
-7.42183e-15 -5.76978e-16 -3.19161e-02
3.04974e-14 1.68396e-15 -3.02790e-02
-1.02455e-14 1.42922e-16 -2.76081e-02
1.90573e-14 -1.02617e-15 -2.40017e-02
2.77615e-14 -4.52775e-15 -1.96206e-02
2.61411e-14 1.59299e-15 -1.47138e-02
-1.88339e-14 -7.15356e-15 -9.65090e-03
-9.81952e-15 -7.10725e-15 -4.96380e-03
1.78322e-14 4.20885e-15 -1.40079e-03
0.00000e+00 0.00000e+00 0.00000e+00
0.00000e+00 0.00000e+00 0.00000e+00
-1.54331e-14 3.36975e-15 -1.70006e-03
-2.42656e-14 -8.71017e-16 -6.03667e-03
-3.31738e-14 5.34829e-15 -1.17622e-02
9.98553e-15 4.27688e-15 -1.79680e-02
-1.24216e-14 -3.31780e-15 -2.40016e-02
-1.63506e-14 7.00251e-15 -2.94048e-02
-1.21078e-14 -6.39055e-15 -3.38642e-02
-1.11305e-14 -5.51993e-15 -3.71734e-02
-8.48016e-15 -8.91113e-15 -3.92046e-02
3.05169e-15 -9.31925e-16 -3.98889e-02
2.99934e-14 -8.02679e-15 -3.92046e-02
-5.13233e-15 -3.42490e-15 -3.71735e-02
3.31964e-14 1.75956e-15 -3.38643e-02
1.61894e-16 -4.15760e-15 -2.94049e-02
-7.11748e-15 -4.28250e-16 -2.40017e-02
1.95221e-15 -1.52053e-15 -1.79680e-02
2.84184e-14 -1.11313e-15 -1.17623e-02
-1.41212e-14 -3.82362e-15 -6.03666e-03
-1.98809e-14 -2.31446e-15 -1.70005e-03
0.00000e+00 0.00000e+00 0.00000e+00
0.00000e+00 0.00000e+00 0.00000e+00
-1.58936e-14 -4.12822e-16 -1.94171e-03
-2.28682e-15 5.58570e-15 -6.90786e-03
-6.63019e-15 -2.58838e-15 -1.34865e-02
-3.62741e-15 5.87993e-15 -2.06376e-02
-1.21405e-14 7.73685e-15 -2.76081e-02
1.37658e-14 -6.90020e-15 -3.38642e-02
1.09347e-14 6.58856e-16 -3.90372e-02
-1.76511e-14 -1.00904e-14 -4.28815e-02
-1.04437e-14 -7.28743e-15 -4.52435e-02
2.24683e-14 -9.75370e-15 -4.60397e-02
1.27226e-14 -6.00216e-15 -4.52436e-02
-5.77937e-15 -1.09942e-14 -4.28816e-02
-1.08988e-14 -1.41060e-15 -3.90373e-02
1.14404e-14 6.26554e-15 -3.38643e-02
6.17191e-15 -1.91092e-15 -2.76081e-02
1.68475e-15 -4.71297e-15 -2.06376e-02
2.66092e-14 -2.31530e-15 -1.34865e-02
4.54493e-14 2.38096e-15 -6.90788e-03
-8.15336e-15 -3.58753e-15 -1.94172e-03
0.00000e+00 0.00000e+00 0.00000e+00
0.00000e+00 0.00000e+00 0.00000e+00
-2.21693e-14 3.96800e-16 -2.11816e-03
-1.44678e-14 3.76144e-16 -7.54648e-03
-3.87323e-15 1.74396e-15 -1.47556e-02
-2.25489e-14 6.48727e-15 -2.26093e-02
-1.47279e-14 5.88615e-16 -3.02789e-02
5.19657e-15 1.16770e-15 -3.71733e-02
-2.31112e-15 -6.83747e-15 -4.28815e-02
-2.58834e-14 -4.71860e-15 -4.71278e-02
-8.66921e-15 -1.30061e-14 -4.97385e-02
-6.64889e-15 -6.83438e-15 -5.06189e-02
-2.34048e-14 -1.42963e-14 -4.97387e-02
-2.88281e-15 -4.07031e-15 -4.71279e-02
-1.19122e-14 -2.34203e-15 -4.28817e-02
-1.45463e-14 -1.24973e-15 -3.71735e-02
-2.91807e-15 3.41589e-15 -3.02791e-02
3.12586e-15 -4.41882e-15 -2.26093e-02
-1.74040e-14 -7.30358e-15 -1.47557e-02
6.56643e-15 -5.73558e-16 -7.54650e-03
-7.99448e-15 1.96141e-15 -2.11815e-03
0.00000e+00 0.00000e+00 0.00000e+00
0.00000e+00 0.00000e+00 0.00000e+00
-1.18091e-15 4.20326e-15 -2.22531e-03
9.86830e-15 2.07374e-16 -7.93530e-03
-4.61164e-14 2.23825e-15 -1.55304e-02
-1.10716e-14 7.98066e-16 -2.38157e-02
2.53257e-14 4.76021e-15 -3.19160e-02
-5.44034e-15 -2.95650e-15 -3.92045e-02
1.63637e-14 -2.59370e-15 -4.52436e-02
1.41289e-14 -7.53307e-15 -4.97385e-02
-6.15254e-15 -3.87538e-15 -5.25033e-02
3.02583e-15 -1.29613e-14 -5.34358e-02
-3.51445e-15 -1.35615e-14 -5.25035e-02
5.40633e-15 -3.71883e-15 -4.97388e-02
-1.24473e-14 -4.51976e-15 -4.52438e-02
-1.08613e-14 -1.55122e-15 -3.92048e-02
1.54456e-14 -2.65488e-15 -3.19162e-02
3.99576e-14 -2.07347e-15 -2.38158e-02
1.03460e-14 1.68332e-18 -1.55304e-02
-2.98671e-14 -8.11352e-15 -7.93532e-03
-4.57053e-15 1.53452e-15 -2.22530e-03
0.00000e+00 0.00000e+00 0.00000e+00
0.00000e+00 0.00000e+00 0.00000e+00
1.58934e-14 3.57592e-15 -2.26120e-03
-3.58250e-14 3.86620e-15 -8.06575e-03
4.03165e-15 -5.32866e-15 -1.57907e-02
-7.39916e-15 -1.59738e-15 -2.42214e-02
9.78797e-15 -1.04577e-15 -3.24672e-02
1.10550e-14 -8.56953e-16 -3.98888e-02
2.75232e-14 -2.21973e-15 -4.60397e-02
2.52655e-14 2.30513e-15 -5.06189e-02
-5.94010e-15 -2.65697e-15 -5.34358e-02
-2.98420e-15 -1.42528e-14 -5.43859e-02
-3.85948e-15 -7.83803e-15 -5.34359e-02
-1.17541e-14 -1.32522e-14 -5.06191e-02
-2.30238e-14 -3.94414e-15 -4.60400e-02
1.41769e-14 -1.07171e-15 -3.98891e-02
3.52426e-14 -2.94999e-15 -3.24674e-02
1.36930e-14 -7.34557e-16 -2.42215e-02
4.43929e-14 -4.45167e-15 -1.57907e-02
-3.16395e-14 3.50448e-15 -8.06578e-03
-4.59269e-14 -5.30498e-15 -2.26121e-03
0.00000e+00 0.00000e+00 0.00000e+00
0.00000e+00 0.00000e+00 0.00000e+00
7.77328e-15 3.72322e-15 -2.22532e-03
-1.00636e-14 1.09654e-15 -7.93530e-03
-1.05874e-14 -4.39308e-15 -1.55304e-02
-5.45328e-16 -9.53553e-15 -2.38157e-02
-9.25820e-15 -2.17553e-15 -3.19161e-02
3.73231e-16 1.83917e-16 -3.92045e-02
-1.32581e-14 1.21800e-15 -4.52435e-02
5.82690e-16 3.26245e-15 -4.97386e-02
1.22563e-14 -6.67835e-15 -5.25034e-02
2.55310e-14 -3.17723e-15 -5.34359e-02
-2.59060e-16 -1.25418e-14 -5.25035e-02
-3.87436e-14 -7.11442e-15 -4.97388e-02
-1.93786e-14 -4.08773e-15 -4.52438e-02
-3.04543e-15 -6.10406e-15 -3.92048e-02
1.07644e-14 4.88960e-15 -3.19162e-02
4.44028e-15 -8.60037e-15 -2.38158e-02
3.06432e-14 2.02731e-15 -1.55304e-02
7.10611e-15 -3.72190e-15 -7.93531e-03
1.44090e-14 -3.02361e-16 -2.22532e-03
0.00000e+00 0.00000e+00 0.00000e+00
0.00000e+00 0.00000e+00 0.00000e+00
-2.25639e-15 -2.62830e-15 -2.11816e-03
8.73383e-15 -2.45382e-15 -7.54650e-03
-1.42318e-14 -4.54534e-15 -1.47556e-02
-3.47983e-14 -4.64082e-15 -2.26093e-02
-8.11310e-15 -1.06578e-14 -3.02790e-02
1.69544e-14 3.40444e-15 -3.71734e-02
3.23044e-14 3.67538e-15 -4.28816e-02
3.46262e-14 -1.18022e-15 -4.71278e-02
-1.66058e-14 -3.07377e-16 -4.97387e-02
-1.23680e-14 -3.77143e-15 -5.06190e-02
4.83478e-16 -6.19717e-15 -4.97387e-02
-1.60410e-14 -1.99969e-15 -4.71279e-02
-3.24189e-14 -8.02444e-15 -4.28817e-02
-2.48289e-14 3.14421e-15 -3.71736e-02
-2.39067e-15 -6.29510e-15 -3.02791e-02
9.89027e-16 2.68927e-15 -2.26093e-02
-4.06922e-15 -1.48016e-14 -1.47556e-02
3.71705e-16 3.26090e-16 -7.54651e-03
1.30665e-14 -4.49460e-16 -2.11817e-03
0.00000e+00 0.00000e+00 0.00000e+00
0.00000e+00 0.00000e+00 0.00000e+00
-1.34259e-14 -3.82575e-15 -1.94172e-03
1.25701e-16 -7.09776e-15 -6.90789e-03
1.88125e-14 1.69448e-15 -1.34865e-02
1.53523e-14 -7.75181e-15 -2.06376e-02
4.30339e-14 -4.70126e-15 -2.76082e-02
2.49580e-14 -3.69426e-15 -3.38643e-02
5.00359e-14 5.38159e-15 -3.90373e-02
-3.43544e-14 5.65780e-15 -4.28816e-02
8.71820e-16 1.93676e-15 -4.52437e-02
-2.69196e-15 -6.33327e-15 -4.60398e-02
-7.49812e-15 4.44563e-15 -4.52436e-02
2.31618e-15 -6.41052e-15 -4.28816e-02
-9.54700e-16 6.18088e-16 -3.90372e-02
-1.54785e-15 -6.43229e-15 -3.38643e-02
1.81933e-14 2.66769e-15 -2.76082e-02
3.00594e-14 -1.09809e-14 -2.06376e-02
-4.97468e-14 -6.69418e-15 -1.34865e-02
-2.10600e-14 -8.80315e-15 -6.90790e-03
6.13990e-15 2.77892e-15 -1.94172e-03
0.00000e+00 0.00000e+00 0.00000e+00
0.00000e+00 0.00000e+00 0.00000e+00
-4.47698e-15 -3.00120e-15 -1.70007e-03
-2.97486e-14 -6.16749e-15 -6.03671e-03
1.09254e-14 -6.66079e-15 -1.17623e-02
-3.40495e-14 -5.60830e-15 -1.79680e-02
-6.82861e-15 -5.00128e-15 -2.40016e-02
2.33167e-14 -1.32551e-15 -2.94050e-02
-1.13528e-14 1.25366e-15 -3.38643e-02
7.31629e-16 1.00799e-14 -3.71735e-02
-2.70390e-14 1.01396e-15 -3.92046e-02
-8.04511e-15 2.96752e-16 -3.98889e-02
-1.72092e-14 -2.16730e-15 -3.92046e-02
-3.43829e-14 1.52634e-15 -3.71734e-02
-3.53181e-15 -2.22575e-15 -3.38642e-02
-2.10521e-14 -2.05118e-15 -2.94048e-02
-3.03194e-15 -1.01194e-14 -2.40016e-02
-6.03294e-15 -7.93566e-15 -1.79680e-02
1.69568e-14 -5.90484e-15 -1.17623e-02
2.52418e-14 -1.34852e-15 -6.03670e-03
-2.23558e-14 -5.11110e-15 -1.70005e-03
0.00000e+00 0.00000e+00 0.00000e+00
0.00000e+00 0.00000e+00 0.00000e+00
-5.84476e-15 -3.12099e-15 -1.40082e-03
6.97532e-15 -2.02883e-15 -4.96379e-03
8.81819e-15 -9.17128e-15 -9.65086e-03
3.19974e-15 -7.95135e-15 -1.47138e-02
1.85137e-14 -8.24132e-15 -1.96206e-02
-1.65099e-14 -8.29965e-16 -2.40017e-02
-1.18223e-14 1.16873e-15 -2.76082e-02
2.30451e-14 1.34975e-15 -3.02791e-02
1.03226e-14 8.75062e-15 -3.19161e-02
2.56983e-14 1.72982e-15 -3.24672e-02
1.13158e-14 -3.07052e-15 -3.19160e-02
4.95399e-14 -1.75208e-15 -3.02789e-02
4.61371e-15 -3.23286e-15 -2.76081e-02
2.42443e-14 -2.95710e-15 -2.40016e-02
-4.26446e-16 -5.45793e-15 -1.96205e-02
1.82221e-14 -5.88572e-15 -1.47137e-02
8.95976e-15 -5.75034e-15 -9.65088e-03
6.42699e-15 -4.97057e-15 -4.96378e-03
1.00297e-14 6.74797e-16 -1.40079e-03
0.00000e+00 0.00000e+00 0.00000e+00
0.00000e+00 0.00000e+00 0.00000e+00
2.31301e-14 -2.27405e-15 -1.05736e-03
4.15321e-15 -4.93171e-15 -3.74200e-03
4.84954e-14 -4.13602e-15 -7.26344e-03
2.16169e-14 -1.28685e-14 -1.10543e-02
-1.04729e-14 -6.84550e-15 -1.47138e-02
2.10129e-14 -7.55738e-15 -1.79681e-02
1.41906e-14 -4.36383e-16 -2.06376e-02
1.94392e-14 7.34149e-15 -2.26094e-02
4.61611e-14 8.06366e-15 -2.38157e-02
8.75079e-15 1.95464e-15 -2.42214e-02
2.89741e-14 -9.72544e-16 -2.38156e-02
-8.50998e-16 -9.57572e-15 -2.26092e-02
1.28601e-14 -3.90335e-15 -2.06375e-02
3.30986e-14 -3.61861e-15 -1.79680e-02
-1.49104e-14 -3.10242e-16 -1.47138e-02
-4.88621e-15 -1.63447e-15 -1.10543e-02
1.71694e-15 -7.09779e-15 -7.26344e-03
-8.36170e-15 -2.20151e-15 -3.74200e-03
6.30307e-15 9.69490e-16 -1.05734e-03
0.00000e+00 0.00000e+00 0.00000e+00
0.00000e+00 0.00000e+00 0.00000e+00
8.24617e-15 -4.15846e-15 -6.93426e-04
-8.00811e-15 -1.64941e-15 -2.45828e-03
-2.87102e-15 -9.09056e-15 -4.77613e-03
2.74521e-14 -2.39107e-15 -7.26346e-03
2.00828e-14 -9.64699e-15 -9.65091e-03
2.92983e-14 -4.29972e-15 -1.17623e-02
2.34381e-14 2.00955e-15 -1.34866e-02
7.13384e-15 5.53686e-15 -1.47557e-02
2.46238e-14 5.65129e-15 -1.55304e-02
1.55537e-14 -1.28878e-15 -1.57906e-02
4.29982e-14 -5.60469e-15 -1.55303e-02
4.87052e-14 -6.87862e-15 -1.47556e-02
1.97462e-14 -3.26454e-15 -1.34865e-02
-1.92199e-14 1.67949e-15 -1.17623e-02
3.35239e-15 -2.79466e-15 -9.65090e-03
4.24835e-15 -4.13181e-15 -7.26346e-03
1.24479e-14 3.16049e-15 -4.77614e-03
1.57929e-15 -3.46405e-15 -2.45827e-03
-1.93747e-14 1.81134e-15 -6.93421e-04
0.00000e+00 0.00000e+00 0.00000e+00
0.00000e+00 0.00000e+00 0.00000e+00
2.97973e-14 -2.01459e-15 -3.47825e-04
-2.19734e-14 -4.15555e-15 -1.25448e-03
-5.56100e-15 -3.25207e-16 -2.45828e-03
-7.99074e-15 -9.54347e-15 -3.74202e-03
-2.70401e-15 1.28236e-15 -4.96379e-03
-1.72942e-14 -2.26022e-15 -6.03673e-03
-2.49683e-14 5.74327e-15 -6.90791e-03
-2.34486e-14 3.29021e-15 -7.54653e-03
5.65179e-15 -8.14031e-15 -7.93530e-03
6.93159e-15 1.45698e-15 -8.06573e-03
2.30631e-14 -6.78556e-15 -7.93527e-03
2.47120e-15 -5.92495e-15 -7.54647e-03
1.19225e-14 6.37974e-15 -6.90789e-03
5.39771e-15 1.10699e-15 -6.03673e-03
1.55152e-14 -1.92792e-15 -4.96381e-03
-3.10011e-15 1.36538e-15 -3.74202e-03
2.18941e-15 -6.27214e-15 -2.45827e-03
-1.34415e-14 3.83951e-15 -1.25448e-03
-3.99191e-15 -5.22431e-16 -3.47827e-04
0.00000e+00 0.00000e+00 0.00000e+00
0.00000e+00 0.00000e+00 0.00000e+00
3.88772e-16 -2.33493e-15 -9.21031e-05
2.86103e-14 1.91432e-15 -3.47829e-04
6.51531e-15 -5.76456e-15 -6.93422e-04
3.20475e-14 1.89018e-15 -1.05735e-03
2.06441e-14 -6.95330e-15 -1.40079e-03
-2.75534e-14 4.28507e-15 -1.70006e-03
1.92977e-15 2.95067e-15 -1.94173e-03
-1.02903e-14 -1.42224e-15 -2.11816e-03
8.08574e-15 -9.40718e-16 -2.22530e-03
9.77547e-15 -4.83254e-15 -2.26122e-03
3.37377e-14 -4.61402e-17 -2.22530e-03
-1.17185e-14 1.82424e-15 -2.11816e-03
1.72177e-14 -3.13473e-15 -1.94173e-03
-3.40147e-15 2.76336e-15 -1.70006e-03
5.06778e-15 1.34026e-15 -1.40079e-03
1.20526e-14 -1.31011e-15 -1.05734e-03
9.10988e-15 -9.80926e-16 -6.93414e-04
-1.17781e-14 -1.48449e-15 -3.47834e-04
-1.54947e-14 1.82993e-15 -9.21095e-05
0.00000e+00 0.00000e+00 0.00000e+00
0.00000e+00 0.00000e+00 0.00000e+00
0.00000e+00 0.00000e+00 0.00000e+00
0.00000e+00 0.00000e+00 0.00000e+00
0.00000e+00 0.00000e+00 0.00000e+00
0.00000e+00 0.00000e+00 0.00000e+00
0.00000e+00 0.00000e+00 0.00000e+00
0.00000e+00 0.00000e+00 0.00000e+00
0.00000e+00 0.00000e+00 0.00000e+00
0.00000e+00 0.00000e+00 0.00000e+00
0.00000e+00 0.00000e+00 0.00000e+00
0.00000e+00 0.00000e+00 0.00000e+00
0.00000e+00 0.00000e+00 0.00000e+00
0.00000e+00 0.00000e+00 0.00000e+00
0.00000e+00 0.00000e+00 0.00000e+00
0.00000e+00 0.00000e+00 0.00000e+00
0.00000e+00 0.00000e+00 0.00000e+00
0.00000e+00 0.00000e+00 0.00000e+00
0.00000e+00 0.00000e+00 0.00000e+00
0.00000e+00 0.00000e+00 0.00000e+00
0.00000e+00 0.00000e+00 0.00000e+00
0.00000e+00 0.00000e+00 0.00000e+00
</DataArray>
<DataArray Name="angDisp" type="Float32" NumberOfComponents="3" format="ascii">
0.00000e+00 0.00000e+00 0.00000e+00
0.00000e+00 0.00000e+00 0.00000e+00
0.00000e+00 0.00000e+00 0.00000e+00
0.00000e+00 0.00000e+00 0.00000e+00
0.00000e+00 0.00000e+00 0.00000e+00
0.00000e+00 0.00000e+00 0.00000e+00
0.00000e+00 0.00000e+00 0.00000e+00
0.00000e+00 0.00000e+00 0.00000e+00
0.00000e+00 0.00000e+00 0.00000e+00
0.00000e+00 0.00000e+00 0.00000e+00
0.00000e+00 0.00000e+00 0.00000e+00
0.00000e+00 0.00000e+00 0.00000e+00
0.00000e+00 0.00000e+00 0.00000e+00
0.00000e+00 0.00000e+00 0.00000e+00
0.00000e+00 0.00000e+00 0.00000e+00
0.00000e+00 0.00000e+00 0.00000e+00
0.00000e+00 0.00000e+00 0.00000e+00
0.00000e+00 0.00000e+00 0.00000e+00
0.00000e+00 0.00000e+00 0.00000e+00
0.00000e+00 0.00000e+00 0.00000e+00
0.00000e+00 0.00000e+00 0.00000e+00
0.00000e+00 0.00000e+00 0.00000e+00
3.85154e-03 -3.85141e-03 1.67537e-14
1.37882e-02 -6.71237e-03 -3.33916e-14
2.74680e-02 -7.61115e-03 -5.90219e-15
4.17650e-02 -7.49460e-03 -9.38040e-14
5.53958e-02 -6.76622e-03 -6.67295e-14
6.71976e-02 -5.66836e-03 -5.89792e-14
7.68070e-02 -4.37343e-03 -1.58763e-13
8.37691e-02 -2.96023e-03 -4.16203e-14
8.80442e-02 -1.49235e-03 -9.61690e-14
8.94434e-02 -1.03185e-06 -8.17092e-14
8.80447e-02 1.49353e-03 -6.00820e-14
8.37699e-02 2.95932e-03 -1.39782e-14
7.68073e-02 4.37455e-03 -8.90105e-15
6.71980e-02 5.66720e-03 5.21267e-14
5.53969e-02 6.76703e-03 -5.33836e-14
4.17657e-02 7.49408e-03 -1.69495e-14
2.74686e-02 7.61195e-03 -2.69648e-14
1.37882e-02 6.71219e-03 -6.59567e-15
3.85161e-03 3.85161e-03 7.30340e-14
0.00000e+00 0.00000e+00 0.00000e+00
0.00000e+00 0.00000e+00 0.00000e+00
6.71222e-03 -1.37882e-02 -2.06185e-15
2.22627e-02 -2.22624e-02 -4.07935e-16
4.30546e-02 -2.56486e-02 -3.54268e-14
6.51356e-02 -2.55061e-02 -8.01494e-14
8.66974e-02 -2.32170e-02 -1.29919e-13
1.05570e-01 -1.95915e-02 -8.32118e-14
1.21188e-01 -1.51809e-02 -6.52958e-14
1.32541e-01 -1.03139e-02 -5.15773e-14
1.39596e-01 -5.21099e-03 -6.19852e-14
1.41875e-01 1.08157e-06 -7.55556e-15
1.39596e-01 5.20787e-03 -9.88653e-15
1.32542e-01 1.03164e-02 -5.72978e-14
1.21188e-01 1.51786e-02 -3.19960e-14
1.05572e-01 1.95930e-02 1.70960e-14
8.66978e-02 2.32150e-02 8.57393e-16
6.51373e-02 2.55075e-02 2.20753e-14
4.30555e-02 2.56482e-02 -6.13601e-14
2.22629e-02 2.22636e-02 -3.13629e-14
6.71234e-03 1.37881e-02 -9.23322e-14
0.00000e+00 0.00000e+00 0.00000e+00
0.00000e+00 0.00000e+00 0.00000e+00
7.61100e-03 -2.74679e-02 -2.23286e-14
2.56486e-02 -4.30553e-02 5.80923e-15
4.97172e-02 -4.97165e-02 -6.63627e-14
7.52908e-02 -4.98946e-02 -1.16850e-13
1.00513e-01 -4.57511e-02 -5.75835e-14
1.22858e-01 -3.88579e-02 -6.59937e-14
1.41471e-01 -3.02469e-02 -1.12008e-14
1.55129e-01 -2.06233e-02 -3.99451e-14
1.63619e-01 -1.04334e-02 1.00873e-14
1.66393e-01 -1.96634e-06 -6.33192e-15
1.63619e-01 1.04361e-02 -3.58243e-14
1.55129e-01 2.06195e-02 1.66731e-14
1.41473e-01 3.02497e-02 2.40250e-14
1.22858e-01 3.88543e-02 7.74500e-14
1.00515e-01 4.57536e-02 1.03943e-14
7.52911e-02 4.98934e-02 -1.81474e-14
4.97175e-02 4.97190e-02 -1.88745e-14
2.56489e-02 4.30548e-02 -6.56439e-14
7.61155e-03 2.74687e-02 -2.41171e-14
0.00000e+00 0.00000e+00 0.00000e+00
0.00000e+00 0.00000e+00 0.00000e+00
7.49503e-03 -4.17652e-02 -6.89412e-14
2.55059e-02 -6.51361e-02 3.69348e-15
4.98948e-02 -7.52907e-02 -1.29891e-13
7.59885e-02 -7.59883e-02 -1.91391e-14
1.01826e-01 -7.01081e-02 -1.03287e-14
1.24883e-01 -5.98468e-02 -6.46713e-15
1.44205e-01 -4.67809e-02 -5.99058e-14
1.58446e-01 -3.19834e-02 -8.16026e-14
1.67335e-01 -1.62139e-02 -1.13850e-14
1.70239e-01 1.93231e-06 2.12283e-14
1.67335e-01 1.62088e-02 -7.20833e-14
1.58447e-01 3.19868e-02 -3.77575e-14
1.44204e-01 4.67769e-02 -3.50877e-14
1.24884e-01 5.98499e-02 2.52802e-14
1.01826e-01 7.01048e-02 2.29912e-14
7.59887e-02 7.59917e-02 -9.35662e-16
4.98944e-02 7.52896e-02 -1.74887e-14
2.55058e-02 6.51380e-02 -1.21377e-13
7.49451e-03 4.17650e-02 -1.10876e-13
0.00000e+00 0.00000e+00 0.00000e+00
0.00000e+00 0.00000e+00 0.00000e+00
6.76595e-03 -5.53958e-02 -3.73591e-14
2.32168e-02 -8.66973e-02 -2.54134e-14
4.57511e-02 -1.00514e-01 -7.61779e-14
7.01088e-02 -1.01826e-01 -6.96772e-14
9.43391e-02 -9.43381e-02 -2.63441e-14
1.16076e-01 -8.08448e-02 2.26030e-14
1.34347e-01 -6.33817e-02 7.77641e-15
1.47885e-01 -4.34383e-02 1.99560e-14
1.56332e-01 -2.20428e-02 -2.17959e-14
1.59113e-01 -2.84490e-06 -1.18644e-13
1.56332e-01 2.20476e-02 -6.52515e-14
1.47884e-01 4.34314e-02 -6.93644e-14
1.34348e-01 6.33869e-02 -1.06081e-13
1.16075e-01 8.08401e-02 1.62458e-14
9.43378e-02 9.43423e-02 -6.32631e-14
7.01074e-02 1.01823e-01 2.83320e-15
4.57511e-02 1.00517e-01 2.90343e-14
2.32161e-02 8.66964e-02 4.32871e-14
6.76606e-03 5.53967e-02 -7.23771e-14
0.00000e+00 0.00000e+00 0.00000e+00
0.00000e+00 0.00000e+00 0.00000e+00
5.66797e-03 -6.71972e-02 2.56054e-14
1.95915e-02 -1.05570e-01 2.58866e-14
3.88579e-02 -1.22859e-01 -5.68829e-14
5.98477e-02 -1.24883e-01 -8.79354e-14
8.08447e-02 -1.16075e-01 -8.34423e-14
9.97543e-02 -9.97532e-02 -3.77057e-14
1.15702e-01 -7.84005e-02 1.12981e-14
1.27539e-01 -5.38140e-02 2.18747e-14
1.34946e-01 -2.73465e-02 -1.07467e-15
1.37379e-01 2.68099e-06 -8.16859e-14
1.34947e-01 2.73389e-02 -1.19809e-13
1.27539e-01 5.38198e-02 1.88634e-14
1.15702e-01 7.83945e-02 -2.98873e-14
9.97545e-02 9.97598e-02 -9.55155e-14
8.08444e-02 1.16071e-01 -5.17072e-14
5.98468e-02 1.24888e-01 -6.15560e-14
3.88568e-02 1.22856e-01 -8.51707e-14
1.95913e-02 1.05573e-01 -8.64436e-14
5.66792e-03 6.71966e-02 4.81411e-14
0.00000e+00 0.00000e+00 0.00000e+00
0.00000e+00 0.00000e+00 0.00000e+00
4.37347e-03 -7.68064e-02 2.37979e-14
1.51806e-02 -1.21188e-01 -3.67159e-14
3.02465e-02 -1.41473e-01 -1.81107e-13
4.67810e-02 -1.44205e-01 -1.03902e-13
6.33824e-02 -1.34347e-01 -1.09109e-13
7.84005e-02 -1.15702e-01 -9.00239e-14
9.10791e-02 -9.10788e-02 1.36406e-14
1.00524e-01 -6.26033e-02 -9.50614e-15
1.06424e-01 -3.18272e-02 -7.49721e-14
1.08377e-01 -4.89324e-06 -4.33323e-15
1.06424e-01 3.18328e-02 -1.23887e-13
1.00524e-01 6.25959e-02 -3.09219e-14
9.10802e-02 9.10852e-02 -2.41850e-14
7.84012e-02 1.15697e-01 1.15087e-14
6.33831e-02 1.34353e-01 -2.68354e-14
4.67811e-02 1.44201e-01 -6.75860e-14
3.02468e-02 1.41476e-01 -7.20976e-14
1.51809e-02 1.21185e-01 -1.04404e-13
4.37337e-03 7.68074e-02 -5.59174e-15
0.00000e+00 0.00000e+00 0.00000e+00
0.00000e+00 0.00000e+00 0.00000e+00
2.96035e-03 -8.37688e-02 -2.45766e-14
1.03146e-02 -1.32541e-01 -3.99598e-14
2.06228e-02 -1.55129e-01 -1.35082e-13
3.19822e-02 -1.58447e-01 -1.27743e-13
4.34363e-02 -1.47884e-01 -4.73101e-14
5.38143e-02 -1.27538e-01 -3.85644e-14
6.26036e-02 -1.00524e-01 -2.00074e-14
6.91454e-02 -6.91441e-02 4.00031e-15
7.32489e-02 -3.51813e-02 -1.58189e-14
7.45966e-02 2.27890e-06 -7.20926e-14
7.32490e-02 3.51716e-02 -9.32743e-14
6.91463e-02 6.91511e-02 -1.34570e-15
6.26045e-02 1.00517e-01 -4.04425e-14
5.38158e-02 1.27546e-01 -1.89992e-15
4.34376e-02 1.47881e-01 -7.02179e-15
3.19835e-02 1.58452e-01 -4.64129e-14
2.06234e-02 1.55126e-01 -7.79121e-14
1.03147e-02 1.32544e-01 -6.01451e-14
2.96015e-03 8.37680e-02 -5.68324e-14
0.00000e+00 0.00000e+00 0.00000e+00
0.00000e+00 0.00000e+00 0.00000e+00
1.49287e-03 -8.80442e-02 1.14831e-14
5.21071e-03 -1.39596e-01 -9.74310e-14
1.04331e-02 -1.63620e-01 -1.20466e-13
1.62129e-02 -1.67335e-01 -1.05889e-13
2.20418e-02 -1.56331e-01 -1.05657e-13
2.73446e-02 -1.34947e-01 -6.55233e-14
3.18268e-02 -1.06424e-01 -3.84489e-14
3.51802e-02 -7.32483e-02 -1.71495e-14
3.72701e-02 -3.72697e-02 -3.92161e-14
3.79691e-02 -5.56991e-06 -9.91074e-14
3.72711e-02 3.72753e-02 -2.05969e-14
3.51810e-02 7.32400e-02 -3.10264e-14
3.18284e-02 1.06430e-01 -5.54018e-14
2.73461e-02 1.34942e-01 -4.02914e-14
2.20428e-02 1.56339e-01 -7.72952e-14
1.62137e-02 1.67332e-01 -1.70141e-13
1.04334e-02 1.63624e-01 -1.23971e-13
5.21035e-03 1.39594e-01 3.13938e-14
1.49280e-03 8.80454e-02 -7.84710e-14
0.00000e+00 0.00000e+00 0.00000e+00
0.00000e+00 0.00000e+00 0.00000e+00
4.94547e-07 -8.94429e-02 -4.24455e-14
-7.06734e-07 -1.41875e-01 -1.04104e-13
1.17666e-06 -1.66392e-01 -2.55367e-14
-1.42294e-06 -1.70239e-01 -1.18568e-13
2.08109e-06 -1.59112e-01 -4.52160e-14
-2.27933e-06 -1.37379e-01 -1.06989e-13
2.28076e-06 -1.08378e-01 1.64638e-15
-2.60519e-06 -7.45957e-02 -1.78411e-14
4.00074e-06 -3.79703e-02 -1.24898e-13
-2.50729e-06 2.47007e-06 -1.15925e-13
3.30911e-06 3.79596e-02 1.40673e-14
-2.22148e-06 7.46020e-02 -4.15954e-14
2.33653e-06 1.08370e-01 -6.19179e-14
-2.68339e-06 1.37387e-01 -6.35081e-14
2.24372e-06 1.59108e-01 -6.31361e-15
-2.03311e-06 1.70245e-01 1.80952e-14
1.64561e-06 1.66390e-01 -7.18532e-14
-1.07079e-06 1.41878e-01 -6.43262e-14
6.85916e-07 8.94420e-02 -2.96147e-14
0.00000e+00 0.00000e+00 0.00000e+00
0.00000e+00 0.00000e+00 0.00000e+00
-1.49349e-03 -8.80447e-02 -2.31135e-14
-5.20853e-03 -1.39596e-01 -3.80960e-14
-1.04354e-02 -1.63620e-01 -5.05771e-14
-1.62091e-02 -1.67335e-01 -7.11300e-14
-2.20461e-02 -1.56332e-01 -1.28669e-13
-2.73395e-02 -1.34946e-01 -6.11904e-14
-3.18311e-02 -1.06424e-01 -2.51036e-14
-3.51736e-02 -7.32496e-02 -1.89988e-14
-3.72752e-02 -3.72703e-02 -1.72103e-14
-3.79624e-02 -4.98928e-06 -4.93610e-14
-3.72758e-02 3.72758e-02 4.91200e-14
-3.51757e-02 7.32402e-02 1.18347e-14
-3.18334e-02 1.06431e-01 -3.59874e-14
-2.73409e-02 1.34942e-01 -9.09873e-14
-2.20470e-02 1.56339e-01 -1.01642e-13
-1.62094e-02 1.67332e-01 3.30959e-14
-1.04361e-02 1.63624e-01 -3.32722e-14
-5.20814e-03 1.39594e-01 -7.47719e-14
-1.49336e-03 8.80460e-02 -9.87163e-14
0.00000e+00 0.00000e+00 0.00000e+00
0.00000e+00 0.00000e+00 0.00000e+00
-2.95953e-03 -8.37689e-02 -6.40725e-14
-1.03162e-02 -1.32541e-01 1.77464e-14
-2.06203e-02 -1.55128e-01 -4.76942e-14
-3.19852e-02 -1.58447e-01 -1.56553e-14
-4.34317e-02 -1.47884e-01 -3.21705e-14
-5.38173e-02 -1.27539e-01 -6.78236e-14
-6.25970e-02 -1.00524e-01 -2.50716e-14
-6.91492e-02 -6.91449e-02 -3.70286e-15
-7.32427e-02 -3.51814e-02 -8.99591e-14
-7.46017e-02 3.13733e-06 -8.46460e-14
-7.32440e-02 3.51732e-02 1.26871e-14
-6.91522e-02 6.91516e-02 2.07548e-14
-6.26005e-02 1.00517e-01 3.49659e-15
-5.38203e-02 1.27544e-01 1.08786e-14
-4.34334e-02 1.47880e-01 8.23286e-15
-3.19868e-02 1.58452e-01 -2.09998e-14
-2.06204e-02 1.55126e-01 -5.96742e-14
-1.03164e-02 1.32544e-01 -7.56998e-14
-2.95969e-03 8.37685e-02 -1.20401e-13
0.00000e+00 0.00000e+00 0.00000e+00
0.00000e+00 0.00000e+00 0.00000e+00
-4.37398e-03 -7.68071e-02 -3.99932e-14
-1.51791e-02 -1.21187e-01 -1.16175e-13
-3.02489e-02 -1.41473e-01 -9.63029e-14
-4.67778e-02 -1.44205e-01 -1.73080e-13
-6.33853e-02 -1.34348e-01 -7.07414e-14
-7.83953e-02 -1.15703e-01 -8.93401e-14
-9.10828e-02 -9.10788e-02 -8.91916e-14
-1.00518e-01 -6.26033e-02 -7.95492e-14
-1.06429e-01 -3.18264e-02 -7.72562e-14
-1.08374e-01 -3.57591e-06 -6.66882e-14
-1.06431e-01 3.18334e-02 -1.30675e-14
-1.00521e-01 6.25970e-02 3.33726e-14
-9.10857e-02 9.10847e-02 5.32144e-14
-7.83980e-02 1.15696e-01 2.05306e-14
-6.33873e-02 1.34353e-01 -9.24807e-15
-4.67787e-02 1.44201e-01 -1.68386e-14
-3.02498e-02 1.41476e-01 2.86150e-15
-1.51795e-02 1.21185e-01 -1.02854e-13
-4.37459e-03 7.68078e-02 -9.79745e-14
0.00000e+00 0.00000e+00 0.00000e+00
0.00000e+00 0.00000e+00 0.00000e+00
-5.66729e-03 -6.71976e-02 -9.40829e-14
-1.95926e-02 -1.05571e-01 -1.22620e-13
-3.88555e-02 -1.22858e-01 -9.30799e-14
-5.98496e-02 -1.24884e-01 1.00190e-15
-8.08418e-02 -1.16076e-01 -3.58903e-14
-9.97577e-02 -9.97552e-02 -1.10191e-13
-1.15697e-01 -7.84001e-02 -6.20660e-14
-1.27543e-01 -5.38130e-02 -1.28089e-14
-1.34943e-01 -2.73445e-02 -5.81550e-15
-1.37385e-01 3.89293e-06 -5.34413e-14
-1.34943e-01 2.73401e-02 5.83411e-15
-1.27544e-01 5.38203e-02 2.10539e-14
-1.15699e-01 7.83942e-02 7.45266e-15
-9.97599e-02 9.97590e-02 5.89852e-15
-8.08422e-02 1.16070e-01 -5.16902e-14
-5.98504e-02 1.24888e-01 2.97771e-16
-3.88552e-02 1.22855e-01 -3.26336e-14
-1.95931e-02 1.05573e-01 -8.01452e-14
-5.66707e-03 6.71966e-02 -7.29006e-14
0.00000e+00 0.00000e+00 0.00000e+00
0.00000e+00 0.00000e+00 0.00000e+00
-6.76686e-03 -5.53965e-02 -3.04122e-14
-2.32160e-02 -8.66971e-02 3.10664e-14
-4.57531e-02 -1.00514e-01 -6.76389e-14
-7.01057e-02 -1.01826e-01 -5.78228e-14
-9.43410e-02 -9.43398e-02 6.17899e-14
-1.16072e-01 -8.08459e-02 -2.39501e-14
-1.34351e-01 -6.33821e-02 1.34623e-14
-1.47881e-01 -4.34358e-02 3.58311e-14
-1.56335e-01 -2.20408e-02 8.18065e-14
-1.59109e-01 -1.94774e-06 -6.95566e-15
-1.56336e-01 2.20480e-02 6.15462e-15
-1.47881e-01 4.34312e-02 -9.19590e-16
-1.34351e-01 6.33873e-02 -1.39806e-13
-1.16071e-01 8.08395e-02 1.40042e-14
-9.43412e-02 9.43419e-02 1.73246e-14
-7.01049e-02 1.01822e-01 2.76822e-14
-4.57531e-02 1.00517e-01 -8.33112e-15
-2.32150e-02 8.66964e-02 -4.49301e-14
-6.76723e-03 5.53964e-02 -7.53140e-14
0.00000e+00 0.00000e+00 0.00000e+00
0.00000e+00 0.00000e+00 0.00000e+00
-7.49423e-03 -4.17650e-02 -5.64303e-14
-2.55072e-02 -6.51363e-02 -2.67269e-14
-4.98938e-02 -7.52909e-02 -3.73373e-14
-7.59904e-02 -7.59894e-02 -4.77164e-14
-1.01824e-01 -7.01081e-02 -4.58910e-15
-1.24887e-01 -5.98481e-02 -4.30146e-16
-1.44202e-01 -4.67805e-02 -4.53718e-14
-1.58451e-01 -3.19815e-02 8.57750e-15
-1.67333e-01 -1.62125e-02 2.98449e-14
-1.70243e-01 3.46563e-06 2.95447e-14
-1.67332e-01 1.62091e-02 -4.45436e-14
-1.58450e-01 3.19866e-02 -4.10623e-14
-1.44201e-01 4.67763e-02 -3.10712e-14
-1.24885e-01 5.98502e-02 -7.08677e-15
-1.01822e-01 7.01043e-02 4.67319e-14
-7.59911e-02 7.59916e-02 -2.83864e-14
-4.98934e-02 7.52886e-02 -7.83744e-14
-2.55075e-02 6.51384e-02 -3.42765e-14
-7.49383e-03 4.17645e-02 -1.40862e-15
0.00000e+00 0.00000e+00 0.00000e+00
0.00000e+00 0.00000e+00 0.00000e+00
-7.61148e-03 -2.74681e-02 4.53860e-14
-2.56482e-02 -4.30545e-02 5.47486e-14
-4.97182e-02 -4.97176e-02 2.28334e-14
-7.52900e-02 -4.98953e-02 4.14544e-14
-1.00516e-01 -4.57518e-02 -3.22141e-14
-1.22857e-01 -3.88576e-02 -4.22803e-14
-1.41475e-01 -3.02469e-02 -4.33126e-14
-1.55127e-01 -2.06225e-02 -1.18668e-14
-1.63622e-01 -1.04321e-02 -5.49555e-14
-1.66391e-01 -6.35220e-07 9.44415e-14
-1.63622e-01 1.04360e-02 -9.36906e-15
-1.55126e-01 2.06189e-02 -5.70769e-14
-1.41475e-01 3.02494e-02 -2.61931e-14
-1.22856e-01 3.88538e-02 -8.06054e-15
-1.00516e-01 4.57539e-02 -4.19501e-14
-7.52894e-02 4.98932e-02 -2.81802e-14
-4.97189e-02 4.97190e-02 4.47306e-14
-2.56480e-02 4.30538e-02 3.81581e-14
-7.61174e-03 2.74684e-02 4.69729e-14
0.00000e+00 0.00000e+00 0.00000e+00
0.00000e+00 0.00000e+00 0.00000e+00
-6.71236e-03 -1.37881e-02 5.71744e-14
-2.22630e-02 -2.22628e-02 -3.02409e-14
-4.30540e-02 -2.56488e-02 4.42643e-15
-6.51374e-02 -2.55063e-02 -3.15299e-14
-8.66971e-02 -2.32166e-02 -9.17880e-15
-1.05572e-01 -1.95917e-02 -5.52839e-15
-1.21187e-01 -1.51808e-02 -1.49618e-13
-1.32543e-01 -1.03140e-02 -5.11194e-14
-1.39595e-01 -5.20946e-03 1.07579e-14
-1.41876e-01 1.36604e-06 2.72527e-14
-1.39593e-01 5.20813e-03 2.19474e-14
-1.32543e-01 1.03162e-02 -1.89524e-14
-1.21186e-01 1.51785e-02 4.64830e-16
-1.05573e-01 1.95930e-02 -1.11356e-14
-8.66965e-02 2.32149e-02 2.17987e-14
-6.51382e-02 2.55078e-02 9.81930e-15
-4.30538e-02 2.56475e-02 2.00627e-14
-2.22635e-02 2.22632e-02 1.75727e-14
-6.71196e-03 1.37879e-02 1.76193e-14
0.00000e+00 0.00000e+00 0.00000e+00
0.00000e+00 0.00000e+00 0.00000e+00
-3.85143e-03 -3.85146e-03 3.04602e-14
-1.37880e-02 -6.71226e-03 1.72998e-14
-2.74686e-02 -7.61167e-03 4.28902e-14
-4.17649e-02 -7.49429e-03 -2.28170e-14
-5.53966e-02 -6.76667e-03 -5.65823e-16
-6.71972e-02 -5.66804e-03 -3.45202e-14
-7.68077e-02 -4.37365e-03 -3.85896e-14
-8.37689e-02 -2.96017e-03 -3.00170e-14
-8.80452e-02 -1.49244e-03 2.66269e-14
-8.94423e-02 -5.27959e-07 -4.44310e-14
-8.80452e-02 1.49337e-03 -8.25910e-14
-8.37683e-02 2.95918e-03 -3.49547e-14
-7.68079e-02 4.37421e-03 8.40239e-15
-6.71970e-02 5.66683e-03 -6.17627e-14
-5.53972e-02 6.76741e-03 6.13972e-15
-4.17644e-02 7.49372e-03 -1.26767e-13
-2.74684e-02 7.61171e-03 4.75673e-14
-1.37877e-02 6.71196e-03 5.29618e-14
-3.85164e-03 3.85149e-03 -2.45325e-14
0.00000e+00 0.00000e+00 0.00000e+00
0.00000e+00 0.00000e+00 0.00000e+00
0.00000e+00 0.00000e+00 0.00000e+00
0.00000e+00 0.00000e+00 0.00000e+00
0.00000e+00 0.00000e+00 0.00000e+00
0.00000e+00 0.00000e+00 0.00000e+00
0.00000e+00 0.00000e+00 0.00000e+00
0.00000e+00 0.00000e+00 0.00000e+00
0.00000e+00 0.00000e+00 0.00000e+00
0.00000e+00 0.00000e+00 0.00000e+00
0.00000e+00 0.00000e+00 0.00000e+00
0.00000e+00 0.00000e+00 0.00000e+00
0.00000e+00 0.00000e+00 0.00000e+00
0.00000e+00 0.00000e+00 0.00000e+00
0.00000e+00 0.00000e+00 0.00000e+00
0.00000e+00 0.00000e+00 0.00000e+00
0.00000e+00 0.00000e+00 0.00000e+00
0.00000e+00 0.00000e+00 0.00000e+00
0.00000e+00 0.00000e+00 0.00000e+00
0.00000e+00 0.00000e+00 0.00000e+00
0.00000e+00 0.00000e+00 0.00000e+00
0.00000e+00 0.00000e+00 0.00000e+00
</DataArray>
<DataArray Name="Fiber" type="Float32" NumberOfComponents="3" format="ascii">
0.00000e+00 0.00000e+00 1.00000e+00
0.00000e+00 0.00000e+00 1.00000e+00
0.00000e+00 0.00000e+00 1.00000e+00
0.00000e+00 0.00000e+00 1.00000e+00
0.00000e+00 0.00000e+00 1.00000e+00
0.00000e+00 0.00000e+00 1.00000e+00
0.00000e+00 0.00000e+00 1.00000e+00
0.00000e+00 0.00000e+00 1.00000e+00
0.00000e+00 0.00000e+00 1.00000e+00
0.00000e+00 0.00000e+00 1.00000e+00
0.00000e+00 0.00000e+00 1.00000e+00
0.00000e+00 0.00000e+00 1.00000e+00
0.00000e+00 0.00000e+00 1.00000e+00
0.00000e+00 0.00000e+00 1.00000e+00
0.00000e+00 0.00000e+00 1.00000e+00
0.00000e+00 0.00000e+00 1.00000e+00
0.00000e+00 0.00000e+00 1.00000e+00
0.00000e+00 0.00000e+00 1.00000e+00
0.00000e+00 0.00000e+00 1.00000e+00
0.00000e+00 0.00000e+00 1.00000e+00
0.00000e+00 0.00000e+00 1.00000e+00
0.00000e+00 0.00000e+00 1.00000e+00
-5.04108e-01 -5.02151e-01 -6.98850e-01
-1.25310e-01 -4.72478e-01 8.74771e-01
2.14885e-01 3.03425e-01 -9.37147e-01
6.45778e-02 3.91105e-03 1.00001e+00
1.88476e-01 9.56680e-01 -2.25686e-01
4.52083e-02 9.45190e-01 3.23568e-01
2.09259e-02 4.51523e-01 -8.94338e-01
-3.41341e-02 -6.43994e-01 7.65099e-01
-1.31930e-02 -8.11695e-01 -5.82901e-01
6.55499e-03 -2.67184e-01 -9.63490e-01
3.78812e-02 -9.52394e-01 -3.00574e-01
-1.05734e-02 1.83413e-01 9.83658e-01
-3.13212e-02 -2.94810e-01 -9.57032e-01
-5.77227e-02 3.46584e-01 -9.36117e-01
-8.16906e-02 3.43582e-01 -9.36327e-01
-1.82265e-01 9.18332e-01 3.58209e-01
1.37469e-04 -3.86666e-01 -9.31458e-01
-2.51919e-01 3.36048e-01 9.09280e-01
3.64524e-01 -3.65691e-01 -8.56610e-01
0.00000e+00 0.00000e+00 1.00000e+00
0.00000e+00 0.00000e+00 1.00000e+00
-3.89611e-01 -4.91428e-02 9.21526e-01
-4.57799e-01 -3.64952e-01 8.20758e-01
5.35236e-01 7.51306e-01 3.82969e-01
4.18014e-01 7.29957e-01 5.43058e-01
2.00172e-01 6.49825e-01 -7.34393e-01
2.16326e-01 9.22638e-01 -2.92477e-01
-4.12899e-02 2.33606e-02 -9.91421e-01
2.78178e-03 3.38254e-01 -9.36966e-01
-1.22262e-02 9.39953e-02 9.96187e-01
3.12846e-02 7.69587e-01 6.38294e-01
-1.55303e-02 8.01778e-01 5.98552e-01
2.48291e-02 -7.89826e-01 -6.06431e-01
7.09950e-02 -8.93060e-01 4.26984e-01
2.96972e-02 -8.52193e-01 -5.06287e-01
1.87948e-01 -8.24771e-01 5.35752e-01
1.36138e-01 -4.75810e-01 -8.70273e-01
1.96582e-01 -4.99479e-01 -8.42079e-01
1.28077e-01 -7.89420e-02 9.96876e-01
-5.35623e-01 3.84083e-01 7.54911e-01
0.00000e+00 0.00000e+00 1.00000e+00
0.00000e+00 0.00000e+00 1.00000e+00
1.40865e-01 1.78000e-01 -9.82557e-01
5.63267e-01 5.48984e-01 6.15567e-01
1.06508e-01 1.03098e-01 -9.89634e-01
5.70759e-01 6.68769e-01 4.74447e-01
3.59518e-01 5.64447e-01 -7.31282e-01
-1.57050e-01 -5.74558e-01 -7.99008e-01
2.72268e-02 1.29977e-01 9.93950e-01
5.44352e-02 6.34304e-01 -7.70118e-01
-8.84846e-02 -6.03656e-01 7.92200e-01
-3.58428e-02 4.67030e-01 -8.84236e-01
-6.34398e-03 1.25170e-01 9.91914e-01
6.37445e-02 -8.55267e-01 -5.12865e-01
-2.77010e-01 9.27333e-01 -2.62183e-01
-3.44695e-01 8.24439e-01 4.39497e-01
2.94197e-01 -9.43892e-01 7.27598e-02
4.30545e-01 -5.39304e-01 7.22603e-01
7.40141e-01 -5.80943e-01 3.41102e-01
9.03386e-01 -3.92960e-01 -1.67094e-01
2.76540e-01 -3.52787e-02 -9.68064e-01
0.00000e+00 0.00000e+00 1.00000e+00
0.00000e+00 0.00000e+00 1.00000e+00
-7.41715e-01 -1.30260e-01 6.60681e-01
-1.27756e-01 -1.01157e-02 9.92993e-01
6.65495e-01 5.37421e-01 5.16003e-01
5.61401e-01 6.03794e-01 5.55056e-01
-1.43097e-01 -4.46973e-01 -8.76650e-01
-9.81610e-03 1.35991e-02 -9.99815e-01
-1.73812e-01 -7.75047e-01 -5.98997e-01
-2.27179e-01 -8.84217e-01 4.06617e-01
-3.81664e-02 2.42317e-01 -9.70470e-01
7.32900e-02 5.93058e-01 8.02043e-01
4.55096e-02 -5.98981e-01 -8.00799e-01
9.27492e-02 -3.24135e-01 9.40729e-01
-3.31939e-01 6.19884e-01 7.03925e-01
3.34703e-01 -8.81501e-01 -3.32594e-01
-4.14293e-01 7.17141e-01 -5.50510e-01
-3.55091e-01 6.64549e-01 -6.46899e-01
1.26361e-02 1.51806e-01 9.87554e-01
-6.04852e-01 3.77652e-01 -7.02426e-01
-6.04865e-02 1.02783e-01 -9.94738e-01
0.00000e+00 0.00000e+00 1.00000e+00
0.00000e+00 0.00000e+00 1.00000e+00
4.56542e-01 6.86283e-02 8.88308e-01
9.31328e-01 2.46726e-01 -2.71288e-01
8.91528e-01 4.12386e-01 1.32871e-01
-8.44047e-01 -4.44236e-01 -2.80981e-01
3.54386e-01 5.39085e-01 7.58302e-01
-3.47988e-01 -5.84626e-01 -7.33918e-01
3.46120e-01 8.14077e-01 4.52132e-01
-1.29068e-01 -8.32720e-01 -5.32360e-01
-2.13216e-02 -9.69984e-01 -2.32773e-01
3.03621e-02 3.44452e-01 -9.35697e-01
2.09257e-01 -8.24097e-01 -5.22128e-01
-7.78224e-02 2.79901e-01 9.53331e-01
-3.34745e-01 7.83287e-01 5.11392e-01
-4.37095e-01 7.60404e-01 4.81951e-01
1.20785e-01 3.26122e-01 9.33146e-01
-2.52882e-01 4.14749e-01 -8.67941e-01
-2.90463e-01 3.54160e-01 -8.80091e-01
-7.21894e-01 2.38152e-01 6.51580e-01
-4.13429e-01 1.13939e-01 -9.03931e-01
0.00000e+00 0.00000e+00 1.00000e+00
0.00000e+00 0.00000e+00 1.00000e+00
-1.64086e-02 2.51443e-02 9.99622e-01
-3.10030e-01 -5.24002e-02 9.40452e-01
-8.65155e-01 -1.61884e-01 -4.67405e-01
-9.58079e-02 1.60840e-01 -9.82369e-01
-9.71313e-01 -2.39838e-01 -1.22203e-02
-7.88971e-01 -3.83021e-01 4.78288e-01
5.06363e-01 5.24698e-01 6.83523e-01
4.31570e-01 4.18521e-01 -7.97709e-01
3.00786e-01 6.63902e-01 -6.83384e-01
2.53947e-01 5.73392e-01 -7.77534e-01
-6.42879e-02 6.96855e-01 -7.13375e-01
4.23849e-01 -7.96936e-01 4.27806e-01
-5.34537e-01 8.33697e-01 1.35737e-01
-3.69763e-01 8.91349e-01 2.59783e-01
-3.50490e-01 5.87621e-01 7.30606e-01
-2.60972e-01 4.34892e-01 -8.61530e-01
3.12810e-01 -1.68141e-02 -9.43488e-01
-2.58348e-01 1.14049e-01 -9.51656e-01
9.92239e-01 -1.23646e-01 9.82125e-03
0.00000e+00 0.00000e+00 1.00000e+00
0.00000e+00 0.00000e+00 1.00000e+00
8.60829e-01 5.95228e-02 5.09234e-01
8.69222e-01 1.33668e-01 -4.59771e-01
-6.26297e-01 -7.76518e-02 7.79200e-01
-6.81260e-01 -1.00210e-01 7.18070e-01
6.14971e-01 6.99045e-01 3.46390e-01
9.84421e-02 9.59120e-01 -2.63479e-01
-2.13629e-01 4.07250e-01 8.81254e-01
1.71441e-01 5.02818e-01 -8.38713e-01
-9.16474e-02 -3.17680e-01 9.36030e-01
-5.93042e-02 9.56039e-01 -2.58468e-01
-1.12164e-01 6.44288e-01 -7.47494e-01
-4.51165e-02 2.63511e-01 9.56432e-01
7.67302e-01 -5.72621e-01 2.68884e-01
-5.85184e-01 5.41512e-01 -6.03234e-01
8.31110e-01 -1.92233e-01 -5.08841e-01
-8.68720e-01 3.89009e-01 -2.91558e-01
5.16632e-01 -8.36200e-02 8.55234e-01
-9.44708e-01 8.34414e-02 -2.93309e-01
-9.73280e-02 1.39592e-02 -9.96946e-01
0.00000e+00 0.00000e+00 1.00000e+00
0.00000e+00 0.00000e+00 1.00000e+00
-6.24132e-01 -1.32134e-02 -7.82043e-01
9.20320e-01 1.18614e-01 3.62053e-01
5.32803e-01 4.55693e-02 -8.44219e-01
-9.06513e-01 -2.22886e-01 3.56464e-01
7.24808e-02 1.81286e-01 9.77047e-01
1.62562e-01 5.41352e-01 -8.23645e-01
-8.77364e-01 3.17339e-02 4.63382e-01
1.87219e-01 9.53804e-01 2.17999e-01
-6.53485e-01 -5.32796e-01 5.39034e-01
-3.68578e-02 8.60130e-03 1.00123e+00
3.92564e-01 -9.09392e-01 1.44193e-01
-8.55022e-01 4.91218e-01 1.45039e-01
-8.23710e-01 4.80290e-01 -2.77090e-01
-3.20543e-01 -8.19454e-02 -9.42470e-01
-6.39579e-01 9.30223e-02 7.58030e-01
-4.56160e-01 -8.17486e-02 -8.85670e-01
-8.14922e-01 4.10449e-02 5.76734e-01
-5.52490e-01 6.84984e-03 -8.28478e-01
-9.09013e-01 5.90943e-02 -4.13440e-01
0.00000e+00 0.00000e+00 1.00000e+00
0.00000e+00 0.00000e+00 1.00000e+00
6.49690e-01 2.81656e-03 -7.59290e-01
-5.21770e-01 -1.42907e-02 8.53795e-01
-7.36359e-01 -1.49858e-01 6.59464e-01
-6.38579e-01 -1.10399e-01 -7.63070e-01
-9.38454e-01 -3.39295e-01 4.68372e-04
5.09672e-01 -1.71665e-01 8.42121e-01
-1.77610e-01 -2.50284e-01 9.44016e-01
3.18509e-01 9.28748e-02 9.44344e-01
-7.26764e-01 -2.65325e-01 6.33280e-01
-4.14200e-01 5.19287e-01 -7.55382e-01
1.13076e-02 -3.15933e-01 -9.48014e-01
-8.76562e-01 2.43083e-01 4.16466e-01
4.95093e-01 -4.28320e-01 7.46582e-01
4.90908e-01 -3.16274e-01 8.09761e-01
-2.69420e-01 -1.71884e-01 9.44747e-01
5.41201e-01 -1.62304e-01 8.26715e-01
-2.29454e-01 -1.28468e-01 -9.64578e-01
9.88938e-01 -4.53597e-02 -1.41642e-01
-5.20414e-01 -1.71609e-02 -8.53104e-01
0.00000e+00 0.00000e+00 1.00000e+00
0.00000e+00 0.00000e+00 1.00000e+00
4.27140e-01 -1.27799e-02 -9.03934e-01
-4.52049e-01 -1.36300e-02 8.92291e-01
-8.79285e-02 -4.62078e-02 -9.95410e-01
-2.36385e-01 -1.13363e-01 9.65190e-01
-3.72439e-01 -2.64478e-01 8.86656e-01
3.37403e-01 -3.96618e-01 -8.52273e-01
1.80527e-01 -7.52839e-01 6.20514e-01
-5.05434e-01 -4.93736e-01 -7.10404e-01
6.80044e-01 -5.10069e-01 -5.37062e-01
8.73671e-01 4.38532e-02 4.74238e-01
-8.36660e-01 -2.03482e-02 5.55338e-01
-1.04441e-01 -4.67021e-02 -9.95290e-01
-9.28971e-01 -2.09256e-01 2.80835e-01
7.06856e-01 -1.68882e-01 -6.85251e-01
3.33213e-01 -1.00752e-01 9.34885e-01
-7.22915e-01 -1.50171e-01 -6.75143e-01
-5.51590e-01 -3.58498e-04 8.34800e-01
2.36701e-01 -1.93414e-02 -9.72211e-01
8.86024e-01 1.26615e-02 4.64004e-01
0.00000e+00 0.00000e+00 1.00000e+00
0.00000e+00 0.00000e+00 1.00000e+00
-9.64607e-01 4.86151e-02 -2.56264e-01
9.80546e-01 -3.25331e-02 1.96105e-01
-8.56453e-03 4.59303e-02 9.98690e-01
-8.13873e-01 5.91574e-02 5.80019e-01
-2.59505e-01 4.97736e-03 -9.63426e-01
-9.62986e-01 1.11520e-01 2.42867e-01
8.81095e-01 -1.01018e-01 -4.47116e-01
-3.20984e-01 -5.69950e-02 9.46166e-01
-2.64913e-01 4.93727e-01 -8.27832e-01
-2.29669e-01 3.34930e-01 -9.18831e-01
2.51701e-01 8.85239e-01 -3.89765e-01
8.97836e-01 4.15094e-01 1.51378e-01
-3.99298e-01 -8.03194e-02 9.05213e-01
7.68414e-03 -1.78331e-01 -9.82258e-01
9.64448e-01 6.02395e-02 2.46820e-01
-3.06892e-01 -2.81708e-02 9.52688e-01
-9.76562e-01 5.74759e-03 2.14254e-01
5.43984e-01 8.13914e-02 -8.35162e-01
-9.58112e-01 6.56964e-03 2.84296e-01
0.00000e+00 0.00000e+00 1.00000e+00
0.00000e+00 0.00000e+00 1.00000e+00
9.11856e-01 -3.71237e-02 4.10380e-01
-9.82588e-01 1.33183e-01 9.41765e-02
-4.22962e-01 1.51439e-01 8.92647e-01
1.61502e-01 1.02680e-01 9.80744e-01
9.94007e-01 -6.53559e-02 -2.74512e-02
-3.51736e-01 3.99453e-01 -8.45372e-01
8.02410e-01 -4.70197e-01 3.49046e-01
-3.15760e-01 7.35805e-01 5.93067e-01
-3.24722e-01 9.46298e-01 1.96837e-02
-1.48958e-02 5.71979e-01 -8.22277e-01
-6.28274e-01 -6.24306e-01 -4.65664e-01
-5.80946e-01 2.33400e-01 7.76408e-01
-5.38286e-01 -7.06169e-01 -4.43220e-01
-4.29066e-01 -2.35052e-01 -8.71282e-01
3.44679e-01 -5.70350e-03 -9.34790e-01
-1.48209e-01 -1.50935e-02 9.88357e-01
-6.57883e-01 -8.58120e-02 7.46722e-01
5.38718e-01 9.35808e-02 8.32270e-01
-6.67462e-01 -5.40339e-02 7.43429e-01
0.00000e+00 0.00000e+00 1.00000e+00
0.00000e+00 0.00000e+00 1.00000e+00
-7.47775e-01 3.23881e-02 6.66171e-01
9.64074e-01 -1.29826e-01 1.96510e-01
-1.42604e-01 2.87679e-03 -9.92321e-01
4.10081e-01 -3.44205e-02 -9.06044e-01
7.55151e-01 -2.31141e-01 6.03089e-01
7.16390e-01 -3.04474e-01 6.27031e-01
5.14980e-02 4.34551e-01 -8.92883e-01
3.37605e-01 -5.90604e-01 7.23477e-01
-2.79146e-01 5.03774e-01 -8.09035e-01
-3.17777e-02 9.61260e-01 2.46883e-01
-3.62406e-02 9.18451e-01 -3.75164e-01
-3.83630e-01 -1.53438e-01 9.02272e-01
2.83347e-01 9.34117e-01 -1.91847e-01
-1.09470e-01 -4.93157e-01 8.62944e-01
1.84802e-02 -4.77267e-03 -9.93145e-01
-8.72920e-01 -3.09406e-01 -3.64977e-01
-3.48979e-01 -1.25530e-01 -9.31615e-01
1.46143e-01 5.76318e-02 9.80297e-01
-6.31375e-01 1.08815e-02 7.77708e-01
0.00000e+00 0.00000e+00 1.00000e+00
0.00000e+00 0.00000e+00 1.00000e+00
-8.89467e-01 2.96053e-02 4.55083e-01
9.37567e-02 -1.01460e-01 9.82437e-01
-3.37737e-01 9.19275e-02 -9.30627e-01
6.35092e-02 -2.05628e-01 9.76217e-01
7.75219e-01 -4.53245e-01 4.41844e-01
8.46857e-01 -3.25709e-01 -4.18875e-01
4.61448e-01 -8.35296e-01 -2.97806e-01
-1.40412e-01 -3.28664e-01 -9.32612e-01
-6.13069e-02 4.56286e-02 9.95626e-01
-1.74242e-01 8.38963e-01 5.13302e-01
-5.00024e-01 -8.07573e-01 -3.07331e-01
-4.90304e-01 6.48436e-02 -8.68192e-01
-2.15319e-01 -4.40652e-01 8.71275e-01
1.73938e-01 1.37813e-01 9.74981e-01
-5.22031e-01 -5.40938e-01 -6.60423e-01
7.19563e-01 2.02488e-01 6.63869e-01
-9.24907e-01 -2.88408e-01 2.22961e-01
2.51066e-01 1.63008e-02 9.60789e-01
6.19871e-01 9.62207e-02 -7.78608e-01
0.00000e+00 0.00000e+00 1.00000e+00
0.00000e+00 0.00000e+00 1.00000e+00
-4.16765e-01 2.50214e-02 9.09334e-01
7.27924e-01 -2.74675e-01 -6.30477e-01
7.89211e-01 -5.84582e-01 -1.37148e-01
3.77218e-01 -3.92075e-01 -8.32480e-01
7.93426e-01 -3.86729e-01 -4.61147e-01
5.63928e-01 -6.40406e-01 -5.23046e-01
2.32591e-02 -3.87778e-01 9.14255e-01
-4.50694e-01 4.48839e-01 -7.66896e-01
-1.24080e-01 4.62073e-01 -8.75298e-01
-9.09317e-02 -1.94095e-01 -9.74312e-01
-2.90551e-01 6.26443e-02 -9.52154e-01
-2.03824e-02 4.51804e-01 8.87620e-01
1.64853e-01 7.91044e-01 -5.77820e-01
1.35317e-01 2.28834e-01 -9.64730e-01
-5.52443e-01 -7.93729e-01 2.38673e-01
-8.25350e-01 -5.50427e-01 7.30883e-02
5.79378e-01 1.93247e-01 7.82760e-01
-4.74939e-01 -1.63603e-01 8.65343e-01
-9.69716e-01 -2.15700e-01 1.18074e-01
0.00000e+00 0.00000e+00 1.00000e+00
0.00000e+00 0.00000e+00 1.00000e+00
-6.63216e-01 9.58037e-02 -7.45709e-01
-1.65268e-01 -9.48073e-02 9.82710e-01
7.04668e-01 -7.07878e-01 3.05821e-02
2.83152e-01 -1.38496e-01 9.41813e-01
7.72886e-02 2.67660e-01 -9.54714e-01
-4.78863e-02 1.50830e-01 9.87121e-01
-2.65859e-01 5.11607e-01 8.11410e-01
-9.42158e-02 -9.71910e-01 2.13147e-01
-1.34605e-01 5.91784e-01 -7.96506e-01
-7.87467e-02 -5.57705e-01 -8.26534e-01
-2.93438e-02 7.98862e-01 -6.02936e-01
1.53052e-01 9.87601e-01 2.40164e-02
2.32650e-01 9.40588e-01 -2.27902e-01
2.61023e-02 1.75325e-01 9.83915e-01
-6.03709e-01 -7.84729e-01 9.58441e-02
6.20324e-01 6.06605e-01 -4.83343e-01
4.25657e-01 1.46597e-01 8.91915e-01
-7.45531e-01 -4.02774e-01 5.33199e-01
1.05336e-01 -2.52285e-02 -9.95937e-01
0.00000e+00 0.00000e+00 1.00000e+00
0.00000e+00 0.00000e+00 1.00000e+00
-8.46244e-02 -1.59786e-01 9.91967e-01
-6.04115e-01 1.49570e-01 7.81245e-01
5.45153e-01 -5.29209e-01 -6.51333e-01
4.80298e-01 -2.62747e-01 -8.35944e-01
4.66855e-01 -8.74784e-01 2.00669e-02
-9.07740e-02 5.43548e-01 8.27475e-01
-1.97980e-01 5.89525e-01 -7.86307e-01
-1.09719e-01 7.63288e-01 -6.35666e-01
-2.55351e-02 -9.39327e-01 -3.41427e-01
7.07960e-02 -9.42221e-01 -3.28663e-01
-1.39770e-02 -1.70908e-01 9.84921e-01
-1.04170e-01 -9.91841e-01 6.37145e-02
1.87616e-01 9.83985e-01 4.48087e-02
-1.53032e-01 -5.56253e-01 -8.09607e-01
-1.89870e-01 -3.56786e-01 9.06708e-01
1.78172e-02 2.08239e-01 9.76969e-01
-3.79805e-01 -4.29869e-01 -8.20167e-01
5.80228e-01 1.33176e-01 8.02468e-01
6.85563e-01 3.62825e-02 -7.37199e-01
0.00000e+00 0.00000e+00 1.00000e+00
0.00000e+00 0.00000e+00 1.00000e+00
7.76358e-01 -6.33310e-01 3.23638e-03
1.70045e-01 -2.57492e-01 -9.60240e-01
-5.66142e-03 3.59092e-01 9.32179e-01
9.03430e-02 1.24021e-01 9.89110e-01
-8.36215e-02 7.11294e-01 -6.99956e-01
3.86092e-02 -2.11978e-01 9.68555e-01
-5.95444e-02 5.44684e-01 -8.27541e-01
-1.07486e-01 7.93118e-01 5.92663e-01
4.59416e-02 9.98244e-01 -3.77533e-02
1.37497e-02 -2.42282e-02 1.00012e+00
-3.92686e-02 -8.67883e-01 -4.95287e-01
-1.37343e-01 -8.87301e-01 4.30800e-01
-2.64817e-02 -2.42371e-01 9.62319e-01
-1.32169e-01 -8.82606e-01 4.35248e-01
-2.82121e-01 -8.32695e-01 4.78372e-01
-4.43494e-01 -8.97305e-01 1.75362e-02
2.10080e-01 6.58692e-01 7.21144e-01
4.13079e-02 9.37944e-03 1.00628e+00
-5.70445e-01 -4.33937e-01 -7.01267e-01
0.00000e+00 0.00000e+00 1.00000e+00
0.00000e+00 0.00000e+00 1.00000e+00
-7.26238e-01 6.46166e-01 -2.33594e-01
6.18958e-01 -7.75533e-01 -1.40339e-01
3.70302e-03 4.72995e-01 8.89926e-01
-8.98972e-02 9.17905e-01 -3.92289e-01
-9.30698e-02 8.90473e-01 4.46943e-01
5.15848e-02 -9.43823e-02 9.93917e-01
-7.83873e-02 9.74256e-01 2.19518e-01
3.26931e-02 -8.27897e-01 -5.60612e-01
3.98265e-02 3.86332e-01 -9.20645e-01
3.92487e-02 9.99307e-01 1.19249e-02
-3.36418e-02 -5.07616e-01 -8.60120e-01
-1.34552e-02 -3.16338e-01 9.48999e-01
-7.66407e-02 -9.77215e-01 2.06643e-01
4.88699e-02 5.35728e-01 -8.42885e-01
-1.22241e-01 -9.48846e-01 -2.92743e-01
-1.04826e-01 2.04491e-01 -9.75177e-01
1.34004e-01 8.02727e-01 -5.93476e-01
-5.16729e-01 -7.14063e-01 -4.78102e-01
6.07056e-01 6.19380e-01 -4.95972e-01
0.00000e+00 0.00000e+00 1.00000e+00
0.00000e+00 0.00000e+00 1.00000e+00
0.00000e+00 0.00000e+00 1.00000e+00
0.00000e+00 0.00000e+00 1.00000e+00
0.00000e+00 0.00000e+00 1.00000e+00
0.00000e+00 0.00000e+00 1.00000e+00
0.00000e+00 0.00000e+00 1.00000e+00
0.00000e+00 0.00000e+00 1.00000e+00
0.00000e+00 0.00000e+00 1.00000e+00
0.00000e+00 0.00000e+00 1.00000e+00
0.00000e+00 0.00000e+00 1.00000e+00
0.00000e+00 0.00000e+00 1.00000e+00
0.00000e+00 0.00000e+00 1.00000e+00
0.00000e+00 0.00000e+00 1.00000e+00
0.00000e+00 0.00000e+00 1.00000e+00
0.00000e+00 0.00000e+00 1.00000e+00
0.00000e+00 0.00000e+00 1.00000e+00
0.00000e+00 0.00000e+00 1.00000e+00
0.00000e+00 0.00000e+00 1.00000e+00
0.00000e+00 0.00000e+00 1.00000e+00
0.00000e+00 0.00000e+00 1.00000e+00
0.00000e+00 0.00000e+00 1.00000e+00
</DataArray>
<DataArray Name="Disp_FEM" type="Float32" NumberOfComponents="3" format="ascii">
0.00000e+00 0.00000e+00 0.00000e+00
0.00000e+00 0.00000e+00 0.00000e+00
0.00000e+00 0.00000e+00 0.00000e+00
0.00000e+00 0.00000e+00 0.00000e+00
0.00000e+00 0.00000e+00 0.00000e+00
0.00000e+00 0.00000e+00 0.00000e+00
0.00000e+00 0.00000e+00 0.00000e+00
0.00000e+00 0.00000e+00 0.00000e+00
0.00000e+00 0.00000e+00 0.00000e+00
0.00000e+00 0.00000e+00 0.00000e+00
0.00000e+00 0.00000e+00 0.00000e+00
0.00000e+00 0.00000e+00 0.00000e+00
0.00000e+00 0.00000e+00 0.00000e+00
0.00000e+00 0.00000e+00 0.00000e+00
0.00000e+00 0.00000e+00 0.00000e+00
0.00000e+00 0.00000e+00 0.00000e+00
0.00000e+00 0.00000e+00 0.00000e+00
0.00000e+00 0.00000e+00 0.00000e+00
0.00000e+00 0.00000e+00 0.00000e+00
0.00000e+00 0.00000e+00 0.00000e+00
0.00000e+00 0.00000e+00 0.00000e+00
0.00000e+00 0.00000e+00 0.00000e+00
-1.86370e-21 -1.86370e-21 -9.22329e-05
-2.94950e-21 -4.30693e-21 -3.48020e-04
-3.40390e-21 -7.53324e-21 -6.93253e-04
-3.45570e-21 -1.09252e-20 -1.05715e-03
-3.22891e-21 -1.41822e-20 -1.40042e-03
-2.79407e-21 -1.70489e-20 -1.69964e-03
-2.21365e-21 -1.93950e-20 -1.94122e-03
-1.52927e-21 -2.11191e-20 -2.11762e-03
-7.80534e-22 -2.21747e-20 -2.22473e-03
7.80051e-35 -2.25277e-20 -2.26063e-03
7.80534e-22 -2.21747e-20 -2.22473e-03
1.52927e-21 -2.11191e-20 -2.11762e-03
2.21365e-21 -1.93950e-20 -1.94122e-03
2.79407e-21 -1.70489e-20 -1.69964e-03
3.22891e-21 -1.41822e-20 -1.40042e-03
3.45570e-21 -1.09252e-20 -1.05715e-03
3.40390e-21 -7.53324e-21 -6.93253e-04
2.94950e-21 -4.30693e-21 -3.48020e-04
1.86370e-21 -1.86370e-21 -9.22329e-05
0.00000e+00 0.00000e+00 0.00000e+00
0.00000e+00 0.00000e+00 0.00000e+00
-4.30693e-21 -2.94950e-21 -3.48020e-04
-6.99031e-21 -6.99031e-21 -1.25472e-03
-8.07261e-21 -1.18008e-20 -2.45790e-03
-8.13881e-21 -1.70148e-20 -3.74115e-03
-7.52052e-21 -2.20921e-20 -4.96252e-03
-6.44865e-21 -2.66665e-20 -6.03511e-03
-5.06443e-21 -3.04492e-20 -6.90605e-03
-3.47865e-21 -3.32680e-20 -7.54449e-03
-1.76823e-21 -3.49975e-20 -7.93318e-03
9.51306e-34 -3.55834e-20 -8.06360e-03
1.76823e-21 -3.49975e-20 -7.93318e-03
3.47865e-21 -3.32680e-20 -7.54449e-03
5.06443e-21 -3.04492e-20 -6.90605e-03
6.44865e-21 -2.66665e-20 -6.03511e-03
7.52052e-21 -2.20921e-20 -4.96252e-03
8.13881e-21 -1.70148e-20 -3.74115e-03
8.07261e-21 -1.18008e-20 -2.45790e-03
6.99031e-21 -6.99031e-21 -1.25472e-03
4.30693e-21 -2.94950e-21 -3.48020e-04
0.00000e+00 0.00000e+00 0.00000e+00
0.00000e+00 0.00000e+00 0.00000e+00
-7.53324e-21 -3.40390e-21 -6.93253e-04
-1.18008e-20 -8.07261e-21 -2.45790e-03
-1.36759e-20 -1.36759e-20 -4.77525e-03
-1.37530e-20 -1.96145e-20 -7.26177e-03
-1.26734e-20 -2.55098e-20 -9.64849e-03
-1.08164e-20 -3.08593e-20 -1.17593e-02
-8.46427e-21 -3.53528e-20 -1.34831e-02
-5.79335e-21 -3.87158e-20 -1.47519e-02
-2.93965e-21 -4.08015e-20 -1.55264e-02
1.42917e-34 -4.15025e-20 -1.57866e-02
2.93965e-21 -4.08015e-20 -1.55264e-02
5.79335e-21 -3.87158e-20 -1.47519e-02
8.46427e-21 -3.53528e-20 -1.34831e-02
1.08164e-20 -3.08593e-20 -1.17593e-02
1.26734e-20 -2.55098e-20 -9.64849e-03
1.37530e-20 -1.96145e-20 -7.26177e-03
1.36759e-20 -1.36759e-20 -4.77525e-03
1.18008e-20 -8.07261e-21 -2.45790e-03
7.53324e-21 -3.40390e-21 -6.93253e-04
0.00000e+00 0.00000e+00 0.00000e+00
0.00000e+00 0.00000e+00 0.00000e+00
-1.09252e-20 -3.45570e-21 -1.05715e-03
-1.70148e-20 -8.13881e-21 -3.74115e-03
-1.96145e-20 -1.37530e-20 -7.26177e-03
-1.97752e-20 -1.97752e-20 -1.10517e-02
-1.82145e-20 -2.57258e-20 -1.47101e-02
-1.55440e-20 -3.12010e-20 -1.79634e-02
-1.21462e-20 -3.58150e-20 -2.06323e-02
-8.30721e-21 -3.93073e-20 -2.26035e-02
-4.21072e-21 -4.14711e-20 -2.38096e-02
2.29926e-33 -4.22086e-20 -2.42153e-02
4.21072e-21 -4.14711e-20 -2.38096e-02
8.30721e-21 -3.93073e-20 -2.26035e-02
1.21462e-20 -3.58150e-20 -2.06323e-02
1.55440e-20 -3.12010e-20 -1.79634e-02
1.82145e-20 -2.57258e-20 -1.47101e-02
1.97752e-20 -1.97752e-20 -1.10517e-02
1.96145e-20 -1.37530e-20 -7.26177e-03
1.70148e-20 -8.13881e-21 -3.74115e-03
1.09252e-20 -3.45570e-21 -1.05715e-03
0.00000e+00 0.00000e+00 0.00000e+00
0.00000e+00 0.00000e+00 0.00000e+00
-1.41822e-20 -3.22891e-21 -1.40042e-03
-2.20921e-20 -7.52052e-21 -4.96252e-03
-2.55098e-20 -1.26734e-20 -9.64849e-03
-2.57258e-20 -1.82145e-20 -1.47101e-02
-2.37496e-20 -2.37496e-20 -1.96156e-02
-2.02778e-20 -2.88405e-20 -2.39956e-02
-1.58580e-20 -3.31751e-20 -2.76012e-02
-1.08436e-20 -3.64563e-20 -3.02714e-02
-5.49773e-21 -3.85083e-20 -3.19081e-02
-1.01871e-34 -3.92003e-20 -3.24591e-02
5.49773e-21 -3.85083e-20 -3.19081e-02
1.08436e-20 -3.64563e-20 -3.02714e-02
1.58580e-20 -3.31751e-20 -2.76012e-02
2.02778e-20 -2.88405e-20 -2.39956e-02
2.37496e-20 -2.37496e-20 -1.96156e-02
2.57258e-20 -1.82145e-20 -1.47101e-02
2.55098e-20 -1.26734e-20 -9.64849e-03
2.20921e-20 -7.52052e-21 -4.96252e-03
1.41822e-20 -3.22891e-21 -1.40042e-03
0.00000e+00 0.00000e+00 0.00000e+00
0.00000e+00 0.00000e+00 0.00000e+00
-1.70489e-20 -2.79407e-21 -1.69964e-03
-2.66665e-20 -6.44865e-21 -6.03511e-03
-3.08593e-20 -1.08164e-20 -1.17593e-02
-3.12010e-20 -1.55440e-20 -1.79634e-02
-2.88405e-20 -2.02778e-20 -2.39956e-02
-2.46711e-20 -2.46711e-20 -2.93975e-02
-1.93069e-20 -2.84097e-20 -3.38558e-02
-1.32140e-20 -3.12628e-20 -3.71642e-02
-6.69991e-21 -3.30409e-20 -3.91949e-02
1.32030e-33 -3.36492e-20 -3.98790e-02
6.69991e-21 -3.30409e-20 -3.91949e-02
1.32140e-20 -3.12628e-20 -3.71642e-02
1.93069e-20 -2.84097e-20 -3.38558e-02
2.46711e-20 -2.46711e-20 -2.93975e-02
2.88405e-20 -2.02778e-20 -2.39956e-02
3.12010e-20 -1.55440e-20 -1.79634e-02
3.08593e-20 -1.08164e-20 -1.17593e-02
2.66665e-20 -6.44865e-21 -6.03511e-03
1.70489e-20 -2.79407e-21 -1.69964e-03
0.00000e+00 0.00000e+00 0.00000e+00
0.00000e+00 0.00000e+00 0.00000e+00
-1.93950e-20 -2.21365e-21 -1.94122e-03
-3.04492e-20 -5.06443e-21 -6.90605e-03
-3.53528e-20 -8.46427e-21 -1.34831e-02
-3.58150e-20 -1.21462e-20 -2.06323e-02
-3.31751e-20 -1.58580e-20 -2.76012e-02
-2.84097e-20 -1.93069e-20 -3.38558e-02
-2.22628e-20 -2.22628e-20 -3.90276e-02
-1.52441e-20 -2.45139e-20 -4.28710e-02
-7.73430e-21 -2.59276e-20 -4.52324e-02
-6.80398e-33 -2.64053e-20 -4.60284e-02
7.73430e-21 -2.59276e-20 -4.52324e-02
1.52441e-20 -2.45139e-20 -4.28710e-02
2.22628e-20 -2.22628e-20 -3.90276e-02
2.84097e-20 -1.93069e-20 -3.38558e-02
3.31751e-20 -1.58580e-20 -2.76012e-02
3.58150e-20 -1.21462e-20 -2.06323e-02
3.53528e-20 -8.46427e-21 -1.34831e-02
3.04492e-20 -5.06443e-21 -6.90605e-03
1.93950e-20 -2.21365e-21 -1.94122e-03
0.00000e+00 0.00000e+00 0.00000e+00
0.00000e+00 0.00000e+00 0.00000e+00
-2.11191e-20 -1.52927e-21 -2.11762e-03
-3.32680e-20 -3.47865e-21 -7.54449e-03
-3.87158e-20 -5.79335e-21 -1.47519e-02
-3.93073e-20 -8.30721e-21 -2.26035e-02
-3.64563e-20 -1.08436e-20 -3.02714e-02
-3.12628e-20 -1.32140e-20 -3.71642e-02
-2.45139e-20 -1.52441e-20 -4.28710e-02
-1.67995e-20 -1.67995e-20 -4.71162e-02
-8.52462e-21 -1.77716e-20 -4.97263e-02
-5.88378e-33 -1.81048e-20 -5.06064e-02
8.52462e-21 -1.77716e-20 -4.97263e-02
1.67995e-20 -1.67995e-20 -4.71162e-02
2.45139e-20 -1.52441e-20 -4.28710e-02
3.12628e-20 -1.32140e-20 -3.71642e-02
3.64563e-20 -1.08436e-20 -3.02714e-02
3.93073e-20 -8.30721e-21 -2.26035e-02
3.87158e-20 -5.79335e-21 -1.47519e-02
3.32680e-20 -3.47865e-21 -7.54449e-03
2.11191e-20 -1.52927e-21 -2.11762e-03
0.00000e+00 0.00000e+00 0.00000e+00
0.00000e+00 0.00000e+00 0.00000e+00
-2.21747e-20 -7.80534e-22 -2.22473e-03
-3.49975e-20 -1.76823e-21 -7.93318e-03
-4.08015e-20 -2.93965e-21 -1.55264e-02
-4.14711e-20 -4.21072e-21 -2.38096e-02
-3.85083e-20 -5.49773e-21 -3.19081e-02
-3.30409e-20 -6.69991e-21 -3.91949e-02
-2.59276e-20 -7.73430e-21 -4.52324e-02
-1.77716e-20 -8.52462e-21 -4.97263e-02
-9.02181e-21 -9.02181e-21 -5.24905e-02
-6.56298e-33 -9.18991e-21 -5.34227e-02
9.02181e-21 -9.02181e-21 -5.24905e-02
1.77716e-20 -8.52462e-21 -4.97263e-02
2.59276e-20 -7.73430e-21 -4.52324e-02
3.30409e-20 -6.69991e-21 -3.91949e-02
3.85083e-20 -5.49773e-21 -3.19081e-02
4.14711e-20 -4.21072e-21 -2.38096e-02
4.08015e-20 -2.93965e-21 -1.55264e-02
3.49975e-20 -1.76823e-21 -7.93318e-03
2.21747e-20 -7.80534e-22 -2.22473e-03
0.00000e+00 0.00000e+00 0.00000e+00
0.00000e+00 0.00000e+00 0.00000e+00
-2.25277e-20 -7.10512e-34 -2.26063e-03
-3.55834e-20 -1.74042e-33 -8.06360e-03
-4.15025e-20 -3.91535e-33 -1.57866e-02
-4.22086e-20 -5.47729e-33 -2.42153e-02
-3.92003e-20 -4.87073e-33 -3.24591e-02
-3.36492e-20 -7.44442e-33 -3.98790e-02
-2.64053e-20 -8.53385e-33 -4.60284e-02
-1.81048e-20 -5.22730e-33 -5.06064e-02
-9.18991e-21 -1.85744e-33 -5.34227e-02
-7.45696e-33 -5.33448e-34 -5.43725e-02
9.18991e-21 -1.39378e-33 -5.34227e-02
1.81048e-20 1.21543e-33 -5.06064e-02
2.64053e-20 -2.33358e-33 -4.60284e-02
3.36492e-20 -3.51030e-33 -3.98790e-02
3.92003e-20 -3.36558e-33 -3.24591e-02
4.22086e-20 -4.51544e-33 -2.42153e-02
4.15025e-20 -2.47114e-33 -1.57866e-02
3.55834e-20 -1.83935e-33 -8.06360e-03
2.25277e-20 -6.77557e-34 -2.26063e-03
0.00000e+00 0.00000e+00 0.00000e+00
0.00000e+00 0.00000e+00 0.00000e+00
-2.21747e-20 7.80534e-22 -2.22473e-03
-3.49975e-20 1.76823e-21 -7.93318e-03
-4.08015e-20 2.93965e-21 -1.55264e-02
-4.14711e-20 4.21072e-21 -2.38096e-02
-3.85083e-20 5.49773e-21 -3.19081e-02
-3.30409e-20 6.69991e-21 -3.91949e-02
-2.59276e-20 7.73430e-21 -4.52324e-02
-1.77716e-20 8.52462e-21 -4.97263e-02
-9.02181e-21 9.02181e-21 -5.24905e-02
-6.98527e-33 9.18991e-21 -5.34227e-02
9.02181e-21 9.02181e-21 -5.24905e-02
1.77716e-20 8.52462e-21 -4.97263e-02
2.59276e-20 7.73430e-21 -4.52324e-02
3.30409e-20 6.69991e-21 -3.91949e-02
3.85083e-20 5.49773e-21 -3.19081e-02
4.14711e-20 4.21072e-21 -2.38096e-02
4.08015e-20 2.93965e-21 -1.55264e-02
3.49975e-20 1.76823e-21 -7.93318e-03
2.21747e-20 7.80534e-22 -2.22473e-03
0.00000e+00 0.00000e+00 0.00000e+00
0.00000e+00 0.00000e+00 0.00000e+00
-2.11191e-20 1.52927e-21 -2.11762e-03
-3.32680e-20 3.47865e-21 -7.54449e-03
-3.87158e-20 5.79335e-21 -1.47519e-02
-3.93073e-20 8.30721e-21 -2.26035e-02
-3.64563e-20 1.08436e-20 -3.02714e-02
-3.12628e-20 1.32140e-20 -3.71642e-02
-2.45139e-20 1.52441e-20 -4.28710e-02
-1.67995e-20 1.67995e-20 -4.71162e-02
-8.52462e-21 1.77716e-20 -4.97263e-02
-6.31671e-33 1.81048e-20 -5.06064e-02
8.52462e-21 1.77716e-20 -4.97263e-02
1.67995e-20 1.67995e-20 -4.71162e-02
2.45139e-20 1.52441e-20 -4.28710e-02
3.12628e-20 1.32140e-20 -3.71642e-02
3.64563e-20 1.08436e-20 -3.02714e-02
3.93073e-20 8.30721e-21 -2.26035e-02
3.87158e-20 5.79335e-21 -1.47519e-02
3.32680e-20 3.47865e-21 -7.54449e-03
2.11191e-20 1.52927e-21 -2.11762e-03
0.00000e+00 0.00000e+00 0.00000e+00
0.00000e+00 0.00000e+00 0.00000e+00
-1.93950e-20 2.21365e-21 -1.94122e-03
-3.04492e-20 5.06443e-21 -6.90605e-03
-3.53528e-20 8.46427e-21 -1.34831e-02
-3.58150e-20 1.21462e-20 -2.06323e-02
-3.31751e-20 1.58580e-20 -2.76012e-02
-2.84097e-20 1.93069e-20 -3.38558e-02
-2.22628e-20 2.22628e-20 -3.90276e-02
-1.52441e-20 2.45139e-20 -4.28710e-02
-7.73430e-21 2.59276e-20 -4.52324e-02
-4.94109e-34 2.64053e-20 -4.60284e-02
7.73430e-21 2.59276e-20 -4.52324e-02
1.52441e-20 2.45139e-20 -4.28710e-02
2.22628e-20 2.22628e-20 -3.90276e-02
2.84097e-20 1.93069e-20 -3.38558e-02
3.31751e-20 1.58580e-20 -2.76012e-02
3.58150e-20 1.21462e-20 -2.06323e-02
3.53528e-20 8.46427e-21 -1.34831e-02
3.04492e-20 5.06443e-21 -6.90605e-03
1.93950e-20 2.21365e-21 -1.94122e-03
0.00000e+00 0.00000e+00 0.00000e+00
0.00000e+00 0.00000e+00 0.00000e+00
-1.70489e-20 2.79407e-21 -1.69964e-03
-2.66665e-20 6.44865e-21 -6.03511e-03
-3.08593e-20 1.08164e-20 -1.17593e-02
-3.12010e-20 1.55440e-20 -1.79634e-02
-2.88405e-20 2.02778e-20 -2.39956e-02
-2.46711e-20 2.46711e-20 -2.93975e-02
-1.93069e-20 2.84097e-20 -3.38558e-02
-1.32140e-20 3.12628e-20 -3.71642e-02
-6.69991e-21 3.30409e-20 -3.91949e-02
-2.20053e-34 3.36492e-20 -3.98790e-02
6.69991e-21 3.30409e-20 -3.91949e-02
1.32140e-20 3.12628e-20 -3.71642e-02
1.93069e-20 2.84097e-20 -3.38558e-02
2.46711e-20 2.46711e-20 -2.93975e-02
2.88405e-20 2.02778e-20 -2.39956e-02
3.12010e-20 1.55440e-20 -1.79634e-02
3.08593e-20 1.08164e-20 -1.17593e-02
2.66665e-20 6.44865e-21 -6.03511e-03
1.70489e-20 2.79407e-21 -1.69964e-03
0.00000e+00 0.00000e+00 0.00000e+00
0.00000e+00 0.00000e+00 0.00000e+00
-1.41822e-20 3.22891e-21 -1.40042e-03
-2.20921e-20 7.52052e-21 -4.96252e-03
-2.55098e-20 1.26734e-20 -9.64849e-03
-2.57258e-20 1.82145e-20 -1.47101e-02
-2.37496e-20 2.37496e-20 -1.96156e-02
-2.02778e-20 2.88405e-20 -2.39956e-02
-1.58580e-20 3.31751e-20 -2.76012e-02
-1.08436e-20 3.64563e-20 -3.02714e-02
-5.49773e-21 3.85083e-20 -3.19081e-02
1.55872e-33 3.92003e-20 -3.24591e-02
5.49773e-21 3.85083e-20 -3.19081e-02
1.08436e-20 3.64563e-20 -3.02714e-02
1.58580e-20 3.31751e-20 -2.76012e-02
2.02778e-20 2.88405e-20 -2.39956e-02
2.37496e-20 2.37496e-20 -1.96156e-02
2.57258e-20 1.82145e-20 -1.47101e-02
2.55098e-20 1.26734e-20 -9.64849e-03
2.20921e-20 7.52052e-21 -4.96252e-03
1.41822e-20 3.22891e-21 -1.40042e-03
0.00000e+00 0.00000e+00 0.00000e+00
0.00000e+00 0.00000e+00 0.00000e+00
-1.09252e-20 3.45570e-21 -1.05715e-03
-1.70148e-20 8.13881e-21 -3.74115e-03
-1.96145e-20 1.37530e-20 -7.26177e-03
-1.97752e-20 1.97752e-20 -1.10517e-02
-1.82145e-20 2.57258e-20 -1.47101e-02
-1.55440e-20 3.12010e-20 -1.79634e-02
-1.21462e-20 3.58150e-20 -2.06323e-02
-8.30721e-21 3.93073e-20 -2.26035e-02
-4.21072e-21 4.14711e-20 -2.38096e-02
1.44940e-33 4.22086e-20 -2.42153e-02
4.21072e-21 4.14711e-20 -2.38096e-02
8.30721e-21 3.93073e-20 -2.26035e-02
1.21462e-20 3.58150e-20 -2.06323e-02
1.55440e-20 3.12010e-20 -1.79634e-02
1.82145e-20 2.57258e-20 -1.47101e-02
1.97752e-20 1.97752e-20 -1.10517e-02
1.96145e-20 1.37530e-20 -7.26177e-03
1.70148e-20 8.13881e-21 -3.74115e-03
1.09252e-20 3.45570e-21 -1.05715e-03
0.00000e+00 0.00000e+00 0.00000e+00
0.00000e+00 0.00000e+00 0.00000e+00
-7.53324e-21 3.40390e-21 -6.93253e-04
-1.18008e-20 8.07261e-21 -2.45790e-03
-1.36759e-20 1.36759e-20 -4.77525e-03
-1.37530e-20 1.96145e-20 -7.26177e-03
-1.26734e-20 2.55098e-20 -9.64849e-03
-1.08164e-20 3.08593e-20 -1.17593e-02
-8.46427e-21 3.53528e-20 -1.34831e-02
-5.79335e-21 3.87158e-20 -1.47519e-02
-2.93965e-21 4.08015e-20 -1.55264e-02
1.70993e-33 4.15025e-20 -1.57866e-02
2.93965e-21 4.08015e-20 -1.55264e-02
5.79335e-21 3.87158e-20 -1.47519e-02
8.46427e-21 3.53528e-20 -1.34831e-02
1.08164e-20 3.08593e-20 -1.17593e-02
1.26734e-20 2.55098e-20 -9.64849e-03
1.37530e-20 1.96145e-20 -7.26177e-03
1.36759e-20 1.36759e-20 -4.77525e-03
1.18008e-20 8.07261e-21 -2.45790e-03
7.53324e-21 3.40390e-21 -6.93253e-04
0.00000e+00 0.00000e+00 0.00000e+00
0.00000e+00 0.00000e+00 0.00000e+00
-4.30693e-21 2.94950e-21 -3.48020e-04
-6.99031e-21 6.99031e-21 -1.25472e-03
-8.07261e-21 1.18008e-20 -2.45790e-03
-8.13881e-21 1.70148e-20 -3.74115e-03
-7.52052e-21 2.20921e-20 -4.96252e-03
-6.44865e-21 2.66665e-20 -6.03511e-03
-5.06443e-21 3.04492e-20 -6.90605e-03
-3.47865e-21 3.32680e-20 -7.54449e-03
-1.76823e-21 3.49975e-20 -7.93318e-03
9.52053e-34 3.55834e-20 -8.06360e-03
1.76823e-21 3.49975e-20 -7.93318e-03
3.47865e-21 3.32680e-20 -7.54449e-03
5.06443e-21 3.04492e-20 -6.90605e-03
6.44865e-21 2.66665e-20 -6.03511e-03
7.52052e-21 2.20921e-20 -4.96252e-03
8.13881e-21 1.70148e-20 -3.74115e-03
8.07261e-21 1.18008e-20 -2.45790e-03
6.99031e-21 6.99031e-21 -1.25472e-03
4.30693e-21 2.94950e-21 -3.48020e-04
0.00000e+00 0.00000e+00 0.00000e+00
0.00000e+00 0.00000e+00 0.00000e+00
-1.86370e-21 1.86370e-21 -9.22329e-05
-2.94950e-21 4.30693e-21 -3.48020e-04
-3.40390e-21 7.53324e-21 -6.93253e-04
-3.45570e-21 1.09252e-20 -1.05715e-03
-3.22891e-21 1.41822e-20 -1.40042e-03
-2.79407e-21 1.70489e-20 -1.69964e-03
-2.21365e-21 1.93950e-20 -1.94122e-03
-1.52927e-21 2.11191e-20 -2.11762e-03
-7.80534e-22 2.21747e-20 -2.22473e-03
5.19387e-34 2.25277e-20 -2.26063e-03
7.80534e-22 2.21747e-20 -2.22473e-03
1.52927e-21 2.11191e-20 -2.11762e-03
2.21365e-21 1.93950e-20 -1.94122e-03
2.79407e-21 1.70489e-20 -1.69964e-03
3.22891e-21 1.41822e-20 -1.40042e-03
3.45570e-21 1.09252e-20 -1.05715e-03
3.40390e-21 7.53324e-21 -6.93253e-04
2.94950e-21 4.30693e-21 -3.48020e-04
1.86370e-21 1.86370e-21 -9.22329e-05
0.00000e+00 0.00000e+00 0.00000e+00
0.00000e+00 0.00000e+00 0.00000e+00
0.00000e+00 0.00000e+00 0.00000e+00
0.00000e+00 0.00000e+00 0.00000e+00
0.00000e+00 0.00000e+00 0.00000e+00
0.00000e+00 0.00000e+00 0.00000e+00
0.00000e+00 0.00000e+00 0.00000e+00
0.00000e+00 0.00000e+00 0.00000e+00
0.00000e+00 0.00000e+00 0.00000e+00
0.00000e+00 0.00000e+00 0.00000e+00
0.00000e+00 0.00000e+00 0.00000e+00
0.00000e+00 0.00000e+00 0.00000e+00
0.00000e+00 0.00000e+00 0.00000e+00
0.00000e+00 0.00000e+00 0.00000e+00
0.00000e+00 0.00000e+00 0.00000e+00
0.00000e+00 0.00000e+00 0.00000e+00
0.00000e+00 0.00000e+00 0.00000e+00
0.00000e+00 0.00000e+00 0.00000e+00
0.00000e+00 0.00000e+00 0.00000e+00
0.00000e+00 0.00000e+00 0.00000e+00
0.00000e+00 0.00000e+00 0.00000e+00
0.00000e+00 0.00000e+00 0.00000e+00
</DataArray>
<DataArray Name="angDisp_FEM" type="Float32" NumberOfComponents="3" format="ascii">
0.00000e+00 0.00000e+00 0.00000e+00
0.00000e+00 0.00000e+00 0.00000e+00
0.00000e+00 0.00000e+00 0.00000e+00
0.00000e+00 0.00000e+00 0.00000e+00
0.00000e+00 0.00000e+00 0.00000e+00
0.00000e+00 0.00000e+00 0.00000e+00
0.00000e+00 0.00000e+00 0.00000e+00
0.00000e+00 0.00000e+00 0.00000e+00
0.00000e+00 0.00000e+00 0.00000e+00
0.00000e+00 0.00000e+00 0.00000e+00
0.00000e+00 0.00000e+00 0.00000e+00
0.00000e+00 0.00000e+00 0.00000e+00
0.00000e+00 0.00000e+00 0.00000e+00
0.00000e+00 0.00000e+00 0.00000e+00
0.00000e+00 0.00000e+00 0.00000e+00
0.00000e+00 0.00000e+00 0.00000e+00
0.00000e+00 0.00000e+00 0.00000e+00
0.00000e+00 0.00000e+00 0.00000e+00
0.00000e+00 0.00000e+00 0.00000e+00
0.00000e+00 0.00000e+00 0.00000e+00
0.00000e+00 0.00000e+00 0.00000e+00
0.00000e+00 0.00000e+00 0.00000e+00
3.83175e-03 -3.83175e-03 1.84976e-34
1.38282e-02 -6.65827e-03 -6.60383e-21
2.74347e-02 -7.55520e-03 -7.27190e-21
4.17822e-02 -7.44113e-03 -7.44930e-21
5.53591e-02 -6.71707e-03 -6.98406e-21
6.71976e-02 -5.62940e-03 -6.17922e-21
7.67693e-02 -4.34225e-03 -4.97129e-21
8.37595e-02 -2.94026e-03 -3.49495e-21
8.80069e-02 -1.48234e-03 -1.79773e-21
8.94300e-02 -4.94134e-16 4.68017e-34
8.80069e-02 1.48234e-03 1.79773e-21
8.37595e-02 2.94026e-03 3.49495e-21
7.67693e-02 4.34225e-03 4.97129e-21
6.71976e-02 5.62940e-03 6.17922e-21
5.53591e-02 6.71707e-03 6.98406e-21
4.17822e-02 7.44113e-03 7.44930e-21
2.74347e-02 7.55520e-03 7.27190e-21
1.38282e-02 6.65827e-03 6.60383e-21
3.83175e-03 3.83175e-03 -7.18453e-34
0.00000e+00 0.00000e+00 0.00000e+00
0.00000e+00 0.00000e+00 0.00000e+00
6.65827e-03 -1.38282e-02 6.60383e-21
2.23161e-02 -2.23161e-02 1.77610e-33
4.29848e-02 -2.57095e-02 -1.23772e-21
6.51814e-02 -2.55676e-02 -2.97661e-23
8.66247e-02 -2.32695e-02 1.03601e-21
1.05591e-01 -1.96376e-02 1.67409e-21
1.21118e-01 -1.52144e-02 1.75428e-21
1.32544e-01 -1.03386e-02 1.42126e-21
1.39528e-01 -5.22092e-03 7.81261e-22
1.41872e-01 5.13385e-15 -6.65099e-33
1.39528e-01 5.22092e-03 -7.81261e-22
1.32544e-01 1.03386e-02 -1.42126e-21
1.21118e-01 1.52144e-02 -1.75428e-21
1.05591e-01 1.96376e-02 -1.67409e-21
8.66247e-02 2.32695e-02 -1.03601e-21
6.51814e-02 2.55676e-02 2.97661e-23
4.29848e-02 2.57095e-02 1.23772e-21
2.23161e-02 2.23161e-02 -9.58122e-34
6.65827e-03 1.38282e-02 -6.60383e-21
0.00000e+00 0.00000e+00 0.00000e+00
0.00000e+00 0.00000e+00 0.00000e+00
7.55520e-03 -2.74347e-02 7.27190e-21
2.57095e-02 -4.29848e-02 1.23772e-21
4.96300e-02 -4.96300e-02 1.98348e-33
7.53380e-02 -4.98114e-02 9.87273e-22
1.00435e-01 -4.56786e-02 2.75422e-21
1.22875e-01 -3.87957e-02 3.73796e-21
1.41398e-01 -3.02018e-02 3.87407e-21
1.55125e-01 -2.05905e-02 3.10099e-21
1.63548e-01 -1.04187e-02 1.72103e-21
1.66383e-01 9.57878e-16 -1.38792e-33
1.63548e-01 1.04187e-02 -1.72103e-21
1.55125e-01 2.05905e-02 -3.10099e-21
1.41398e-01 3.02018e-02 -3.87407e-21
1.22875e-01 3.87957e-02 -3.73796e-21
1.00435e-01 4.56786e-02 -2.75422e-21
7.53380e-02 4.98114e-02 -9.87273e-22
4.96300e-02 4.96300e-02 9.60254e-34
2.57095e-02 4.29848e-02 -1.23772e-21
7.55520e-03 2.74347e-02 -7.27190e-21
0.00000e+00 0.00000e+00 0.00000e+00
0.00000e+00 0.00000e+00 0.00000e+00
7.44113e-03 -4.17822e-02 7.44930e-21
2.55676e-02 -6.51814e-02 2.97661e-23
4.98114e-02 -7.53380e-02 -9.87273e-22
7.60300e-02 -7.60300e-02 2.35926e-33
1.01746e-01 -7.01433e-02 1.74785e-21
1.24899e-01 -5.98779e-02 3.13868e-21
1.44128e-01 -4.68023e-02 3.56247e-21
1.58445e-01 -3.19996e-02 3.02921e-21
1.67260e-01 -1.62190e-02 1.71642e-21
1.70231e-01 1.44157e-14 -4.75491e-33
1.67260e-01 1.62190e-02 -1.71642e-21
1.58445e-01 3.19996e-02 -3.02921e-21
1.44128e-01 4.68023e-02 -3.56247e-21
1.24899e-01 5.98779e-02 -3.13868e-21
1.01746e-01 7.01433e-02 -1.74785e-21
7.60300e-02 7.60300e-02 4.20079e-33
4.98114e-02 7.53380e-02 9.87273e-22
2.55676e-02 6.51814e-02 -2.97661e-23
7.44113e-03 4.17822e-02 -7.44930e-21
0.00000e+00 0.00000e+00 0.00000e+00
0.00000e+00 0.00000e+00 0.00000e+00
6.71707e-03 -5.53591e-02 6.98406e-21
2.32695e-02 -8.66247e-02 -1.03601e-21
4.56786e-02 -1.00435e-01 -2.75422e-21
7.01433e-02 -1.01746e-01 -1.74785e-21
9.42682e-02 -9.42682e-02 1.64607e-33
1.16086e-01 -8.07836e-02 1.49189e-21
1.34282e-01 -6.33389e-02 2.27519e-21
1.47878e-01 -4.34039e-02 2.13198e-21
1.56269e-01 -2.20293e-02 1.27382e-21
1.59101e-01 1.51188e-15 -2.29795e-33
1.56269e-01 2.20293e-02 -1.27382e-21
1.47878e-01 4.34039e-02 -2.13198e-21
1.34282e-01 6.33389e-02 -2.27519e-21
1.16086e-01 8.07836e-02 -1.49189e-21
9.42682e-02 9.42682e-02 4.84206e-33
7.01433e-02 1.01746e-01 1.74785e-21
4.56786e-02 1.00435e-01 2.75422e-21
2.32695e-02 8.66247e-02 1.03601e-21
6.71707e-03 5.53591e-02 -6.98406e-21
0.00000e+00 0.00000e+00 0.00000e+00
0.00000e+00 0.00000e+00 0.00000e+00
5.62940e-03 -6.71976e-02 6.17922e-21
1.96376e-02 -1.05591e-01 -1.67409e-21
3.87957e-02 -1.22875e-01 -3.73796e-21
5.98779e-02 -1.24899e-01 -3.13868e-21
8.07836e-02 -1.16086e-01 -1.49189e-21
9.97654e-02 -9.97654e-02 1.70478e-33
1.15643e-01 -7.84054e-02 9.35019e-22
1.27536e-01 -5.38208e-02 1.15373e-21
1.34888e-01 -2.73450e-02 7.48944e-22
1.37372e-01 1.06377e-14 -6.56858e-33
1.34888e-01 2.73450e-02 -7.48944e-22
1.27536e-01 5.38208e-02 -1.15373e-21
1.15643e-01 7.84054e-02 -9.35019e-22
9.97654e-02 9.97654e-02 2.54584e-33
8.07836e-02 1.16086e-01 1.49189e-21
5.98779e-02 1.24899e-01 3.13868e-21
3.87957e-02 1.22875e-01 3.73796e-21
1.96376e-02 1.05591e-01 1.67409e-21
5.62940e-03 6.71976e-02 -6.17922e-21
0.00000e+00 0.00000e+00 0.00000e+00
0.00000e+00 0.00000e+00 0.00000e+00
4.34225e-03 -7.67693e-02 4.97129e-21
1.52144e-02 -1.21118e-01 -1.75428e-21
3.02018e-02 -1.41398e-01 -3.87407e-21
4.68023e-02 -1.44128e-01 -3.56247e-21
6.33389e-02 -1.34282e-01 -2.27519e-21
7.84054e-02 -1.15643e-01 -9.35019e-22
9.10379e-02 -9.10379e-02 8.48049e-33
1.00517e-01 -6.25705e-02 3.96645e-22
1.06383e-01 -3.18147e-02 3.33276e-22
1.08366e-01 -2.83367e-14 -1.05925e-32
1.06383e-01 3.18147e-02 -3.33276e-22
1.00517e-01 6.25705e-02 -3.96645e-22
9.10379e-02 9.10379e-02 -5.23329e-33
7.84054e-02 1.15643e-01 9.35019e-22
6.33389e-02 1.34282e-01 2.27519e-21
4.68023e-02 1.44128e-01 3.56247e-21
3.02018e-02 1.41398e-01 3.87407e-21
1.52144e-02 1.21118e-01 1.75428e-21
4.34225e-03 7.67693e-02 -4.97129e-21
0.00000e+00 0.00000e+00 0.00000e+00
0.00000e+00 0.00000e+00 0.00000e+00
2.94026e-03 -8.37595e-02 3.49495e-21
1.03386e-02 -1.32544e-01 -1.42126e-21
2.05905e-02 -1.55125e-01 -3.10099e-21
3.19996e-02 -1.58445e-01 -3.02921e-21
4.34039e-02 -1.47878e-01 -2.13198e-21
5.38208e-02 -1.27536e-01 -1.15373e-21
6.25705e-02 -1.00517e-01 -3.96645e-22
6.91440e-02 -6.91440e-02 2.03334e-32
7.32155e-02 -3.51754e-02 8.88330e-23
7.45925e-02 -2.51345e-14 2.54193e-32
7.32155e-02 3.51754e-02 -8.88330e-23
6.91440e-02 6.91440e-02 4.30907e-33
6.25705e-02 1.00517e-01 3.96645e-22
5.38208e-02 1.27536e-01 1.15373e-21
4.34039e-02 1.47878e-01 2.13198e-21
3.19996e-02 1.58445e-01 3.02921e-21
2.05905e-02 1.55125e-01 3.10099e-21
1.03386e-02 1.32544e-01 1.42126e-21
2.94026e-03 8.37595e-02 -3.49495e-21
0.00000e+00 0.00000e+00 0.00000e+00
0.00000e+00 0.00000e+00 0.00000e+00
1.48234e-03 -8.80069e-02 1.79773e-21
5.22092e-03 -1.39528e-01 -7.81261e-22
1.04187e-02 -1.63548e-01 -1.72103e-21
1.62190e-02 -1.67260e-01 -1.71642e-21
2.20293e-02 -1.56269e-01 -1.27382e-21
2.73450e-02 -1.34888e-01 -7.48944e-22
3.18147e-02 -1.06383e-01 -3.33276e-22
3.51754e-02 -7.32155e-02 -8.88330e-23
3.72579e-02 -3.72579e-02 6.41650e-33
3.79623e-02 -3.24895e-14 -5.12268e-33
3.72579e-02 3.72579e-02 1.60314e-32
3.51754e-02 7.32155e-02 8.88330e-23
3.18147e-02 1.06383e-01 3.33276e-22
2.73450e-02 1.34888e-01 7.48944e-22
2.20293e-02 1.56269e-01 1.27382e-21
1.62190e-02 1.67260e-01 1.71642e-21
1.04187e-02 1.63548e-01 1.72103e-21
5.22092e-03 1.39528e-01 7.81261e-22
1.48234e-03 8.80069e-02 -1.79773e-21
0.00000e+00 0.00000e+00 0.00000e+00
0.00000e+00 0.00000e+00 0.00000e+00
2.16583e-15 -8.94300e-02 -3.13098e-34
6.03240e-15 -1.41872e-01 4.98690e-33
1.61660e-14 -1.66383e-01 2.76765e-33
2.17793e-14 -1.70231e-01 -5.33519e-33
2.11591e-14 -1.59101e-01 -4.82266e-33
3.05623e-14 -1.37372e-01 1.14877e-32
3.58676e-14 -1.08366e-01 -7.17916e-33
2.08948e-14 -7.45925e-02 -8.64350e-33
7.31560e-15 -3.79623e-02 -4.91455e-33
-1.04712e-16 -3.38791e-14 -4.45631e-33
6.29550e-15 3.79623e-02 -1.56039e-32
-5.53829e-15 7.45925e-02 -6.12585e-34
1.00049e-14 1.08366e-01 1.10601e-32
1.46822e-14 1.37372e-01 2.83564e-33
1.45060e-14 1.59101e-01 5.22831e-33
1.91163e-14 1.70231e-01 4.30700e-33
1.01096e-14 1.66383e-01 -8.58793e-34
7.30371e-15 1.41872e-01 2.05839e-33
1.76410e-15 8.94300e-02 3.66071e-34
0.00000e+00 0.00000e+00 0.00000e+00
0.00000e+00 0.00000e+00 0.00000e+00
-1.48234e-03 -8.80069e-02 -1.79773e-21
-5.22092e-03 -1.39528e-01 7.81261e-22
-1.04187e-02 -1.63548e-01 1.72103e-21
-1.62190e-02 -1.67260e-01 1.71642e-21
-2.20293e-02 -1.56269e-01 1.27382e-21
-2.73450e-02 -1.34888e-01 7.48944e-22
-3.18147e-02 -1.06383e-01 3.33276e-22
-3.51754e-02 -7.32155e-02 8.88330e-23
-3.72579e-02 -3.72579e-02 1.21815e-32
-3.79623e-02 -3.08015e-14 -1.72210e-32
-3.72579e-02 3.72579e-02 -3.19584e-33
-3.51754e-02 7.32155e-02 -8.88330e-23
-3.18147e-02 1.06383e-01 -3.33276e-22
-2.73450e-02 1.34888e-01 -7.48944e-22
-2.20293e-02 1.56269e-01 -1.27382e-21
-1.62190e-02 1.67260e-01 -1.71642e-21
-1.04187e-02 1.63548e-01 -1.72103e-21
-5.22092e-03 1.39528e-01 -7.81261e-22
-1.48234e-03 8.80069e-02 1.79773e-21
0.00000e+00 0.00000e+00 0.00000e+00
0.00000e+00 0.00000e+00 0.00000e+00
-2.94026e-03 -8.37595e-02 -3.49495e-21
-1.03386e-02 -1.32544e-01 1.42126e-21
-2.05905e-02 -1.55125e-01 3.10099e-21
-3.19996e-02 -1.58445e-01 3.02921e-21
-4.34039e-02 -1.47878e-01 2.13198e-21
-5.38208e-02 -1.27536e-01 1.15373e-21
-6.25705e-02 -1.00517e-01 3.96645e-22
-6.91440e-02 -6.91440e-02 3.86224e-33
-7.32155e-02 -3.51754e-02 -8.88330e-23
-7.45925e-02 -2.45461e-14 8.58763e-33
-7.32155e-02 3.51754e-02 8.88330e-23
-6.91440e-02 6.91440e-02 -7.84816e-33
-6.25705e-02 1.00517e-01 -3.96645e-22
-5.38208e-02 1.27536e-01 -1.15373e-21
-4.34039e-02 1.47878e-01 -2.13198e-21
-3.19996e-02 1.58445e-01 -3.02921e-21
-2.05905e-02 1.55125e-01 -3.10099e-21
-1.03386e-02 1.32544e-01 -1.42126e-21
-2.94026e-03 8.37595e-02 3.49495e-21
0.00000e+00 0.00000e+00 0.00000e+00
0.00000e+00 0.00000e+00 0.00000e+00
-4.34225e-03 -7.67693e-02 -4.97129e-21
-1.52144e-02 -1.21118e-01 1.75428e-21
-3.02018e-02 -1.41398e-01 3.87407e-21
-4.68023e-02 -1.44128e-01 3.56247e-21
-6.33389e-02 -1.34282e-01 2.27519e-21
-7.84054e-02 -1.15643e-01 9.35019e-22
-9.10379e-02 -9.10379e-02 3.86916e-33
-1.00517e-01 -6.25705e-02 -3.96645e-22
-1.06383e-01 -3.18147e-02 -3.33276e-22
-1.08366e-01 1.91794e-16 7.17392e-33
-1.06383e-01 3.18147e-02 3.33276e-22
-1.00517e-01 6.25705e-02 3.96645e-22
-9.10379e-02 9.10379e-02 -1.04403e-32
-7.84054e-02 1.15643e-01 -9.35019e-22
-6.33389e-02 1.34282e-01 -2.27519e-21
-4.68023e-02 1.44128e-01 -3.56247e-21
-3.02018e-02 1.41398e-01 -3.87407e-21
-1.52144e-02 1.21118e-01 -1.75428e-21
-4.34225e-03 7.67693e-02 4.97129e-21
0.00000e+00 0.00000e+00 0.00000e+00
0.00000e+00 0.00000e+00 0.00000e+00
-5.62940e-03 -6.71976e-02 -6.17922e-21
-1.96376e-02 -1.05591e-01 1.67409e-21
-3.87957e-02 -1.22875e-01 3.73796e-21
-5.98779e-02 -1.24899e-01 3.13868e-21
-8.07836e-02 -1.16086e-01 1.49189e-21
-9.97654e-02 -9.97654e-02 -8.04422e-33
-1.15643e-01 -7.84054e-02 -9.35019e-22
-1.27536e-01 -5.38208e-02 -1.15373e-21
-1.34888e-01 -2.73450e-02 -7.48944e-22
-1.37372e-01 2.46529e-15 3.17861e-33
-1.34888e-01 2.73450e-02 7.48944e-22
-1.27536e-01 5.38208e-02 1.15373e-21
-1.15643e-01 7.84054e-02 9.35019e-22
-9.97654e-02 9.97654e-02 -8.86981e-33
-8.07836e-02 1.16086e-01 -1.49189e-21
-5.98779e-02 1.24899e-01 -3.13868e-21
-3.87957e-02 1.22875e-01 -3.73796e-21
-1.96376e-02 1.05591e-01 -1.67409e-21
-5.62940e-03 6.71976e-02 6.17922e-21
0.00000e+00 0.00000e+00 0.00000e+00
0.00000e+00 0.00000e+00 0.00000e+00
-6.71707e-03 -5.53591e-02 -6.98406e-21
-2.32695e-02 -8.66247e-02 1.03601e-21
-4.56786e-02 -1.00435e-01 2.75422e-21
-7.01433e-02 -1.01746e-01 1.74785e-21
-9.42682e-02 -9.42682e-02 -2.79800e-33
-1.16086e-01 -8.07836e-02 -1.49189e-21
-1.34282e-01 -6.33389e-02 -2.27519e-21
-1.47878e-01 -4.34039e-02 -2.13198e-21
-1.56269e-01 -2.20293e-02 -1.27382e-21
-1.59101e-01 9.14745e-15 2.92130e-33
-1.56269e-01 2.20293e-02 1.27382e-21
-1.47878e-01 4.34039e-02 2.13198e-21
-1.34282e-01 6.33389e-02 2.27519e-21
-1.16086e-01 8.07836e-02 1.49189e-21
-9.42682e-02 9.42682e-02 -4.10464e-33
-7.01433e-02 1.01746e-01 -1.74785e-21
-4.56786e-02 1.00435e-01 -2.75422e-21
-2.32695e-02 8.66247e-02 -1.03601e-21
-6.71707e-03 5.53591e-02 6.98406e-21
0.00000e+00 0.00000e+00 0.00000e+00
0.00000e+00 0.00000e+00 0.00000e+00
-7.44113e-03 -4.17822e-02 -7.44930e-21
-2.55676e-02 -6.51814e-02 -2.97661e-23
-4.98114e-02 -7.53380e-02 9.87273e-22
-7.60300e-02 -7.60300e-02 -4.82473e-33
-1.01746e-01 -7.01433e-02 -1.74785e-21
-1.24899e-01 -5.98779e-02 -3.13868e-21
-1.44128e-01 -4.68023e-02 -3.56247e-21
-1.58445e-01 -3.19996e-02 -3.02921e-21
-1.67260e-01 -1.62190e-02 -1.71642e-21
-1.70231e-01 9.63685e-15 -5.14230e-34
-1.67260e-01 1.62190e-02 1.71642e-21
-1.58445e-01 3.19996e-02 3.02921e-21
-1.44128e-01 4.68023e-02 3.56247e-21
-1.24899e-01 5.98779e-02 3.13868e-21
-1.01746e-01 7.01433e-02 1.74785e-21
-7.60300e-02 7.60300e-02 -6.25927e-34
-4.98114e-02 7.53380e-02 -9.87273e-22
-2.55676e-02 6.51814e-02 2.97661e-23
-7.44113e-03 4.17822e-02 7.44930e-21
0.00000e+00 0.00000e+00 0.00000e+00
0.00000e+00 0.00000e+00 0.00000e+00
-7.55520e-03 -2.74347e-02 -7.27190e-21
-2.57095e-02 -4.29848e-02 -1.23772e-21
-4.96300e-02 -4.96300e-02 -4.53496e-33
-7.53380e-02 -4.98114e-02 -9.87273e-22
-1.00435e-01 -4.56786e-02 -2.75422e-21
-1.22875e-01 -3.87957e-02 -3.73796e-21
-1.41398e-01 -3.02018e-02 -3.87407e-21
-1.55125e-01 -2.05905e-02 -3.10099e-21
-1.63548e-01 -1.04187e-02 -1.72103e-21
-1.66383e-01 8.96576e-15 8.93977e-33
-1.63548e-01 1.04187e-02 1.72103e-21
-1.55125e-01 2.05905e-02 3.10099e-21
-1.41398e-01 3.02018e-02 3.87407e-21
-1.22875e-01 3.87957e-02 3.73796e-21
-1.00435e-01 4.56786e-02 2.75422e-21
-7.53380e-02 4.98114e-02 9.87273e-22
-4.96300e-02 4.96300e-02 2.63022e-34
-2.57095e-02 4.29848e-02 1.23772e-21
-7.55520e-03 2.74347e-02 7.27190e-21
0.00000e+00 0.00000e+00 0.00000e+00
0.00000e+00 0.00000e+00 0.00000e+00
-6.65827e-03 -1.38282e-02 -6.60383e-21
-2.23161e-02 -2.23161e-02 -2.34348e-33
-4.29848e-02 -2.57095e-02 1.23772e-21
-6.51814e-02 -2.55676e-02 2.97661e-23
-8.66247e-02 -2.32695e-02 -1.03601e-21
-1.05591e-01 -1.96376e-02 -1.67409e-21
-1.21118e-01 -1.52144e-02 -1.75428e-21
-1.32544e-01 -1.03386e-02 -1.42126e-21
-1.39528e-01 -5.22092e-03 -7.81261e-22
-1.41872e-01 4.24187e-15 3.70085e-33
-1.39528e-01 5.22092e-03 7.81261e-22
-1.32544e-01 1.03386e-02 1.42126e-21
-1.21118e-01 1.52144e-02 1.75428e-21
-1.05591e-01 1.96376e-02 1.67409e-21
-8.66247e-02 2.32695e-02 1.03601e-21
-6.51814e-02 2.55676e-02 -2.97661e-23
-4.29848e-02 2.57095e-02 -1.23772e-21
-2.23161e-02 2.23161e-02 -7.59840e-35
-6.65827e-03 1.38282e-02 6.60383e-21
0.00000e+00 0.00000e+00 0.00000e+00
0.00000e+00 0.00000e+00 0.00000e+00
-3.83175e-03 -3.83175e-03 -2.34723e-34
-1.38282e-02 -6.65827e-03 6.60383e-21
-2.74347e-02 -7.55520e-03 7.27190e-21
-4.17822e-02 -7.44113e-03 7.44930e-21
-5.53591e-02 -6.71707e-03 6.98406e-21
-6.71976e-02 -5.62940e-03 6.17922e-21
-7.67693e-02 -4.34225e-03 4.97129e-21
-8.37595e-02 -2.94026e-03 3.49495e-21
-8.80069e-02 -1.48234e-03 1.79773e-21
-8.94300e-02 1.52602e-15 3.10823e-33
-8.80069e-02 1.48234e-03 -1.79773e-21
-8.37595e-02 2.94026e-03 -3.49495e-21
-7.67693e-02 4.34225e-03 -4.97129e-21
-6.71976e-02 5.62940e-03 -6.17922e-21
-5.53591e-02 6.71707e-03 -6.98406e-21
-4.17822e-02 7.44113e-03 -7.44930e-21
-2.74347e-02 7.55520e-03 -7.27190e-21
-1.38282e-02 6.65827e-03 -6.60383e-21
-3.83175e-03 3.83175e-03 1.03915e-34
0.00000e+00 0.00000e+00 0.00000e+00
0.00000e+00 0.00000e+00 0.00000e+00
0.00000e+00 0.00000e+00 0.00000e+00
0.00000e+00 0.00000e+00 0.00000e+00
0.00000e+00 0.00000e+00 0.00000e+00
0.00000e+00 0.00000e+00 0.00000e+00
0.00000e+00 0.00000e+00 0.00000e+00
0.00000e+00 0.00000e+00 0.00000e+00
0.00000e+00 0.00000e+00 0.00000e+00
0.00000e+00 0.00000e+00 0.00000e+00
0.00000e+00 0.00000e+00 0.00000e+00
0.00000e+00 0.00000e+00 0.00000e+00
0.00000e+00 0.00000e+00 0.00000e+00
0.00000e+00 0.00000e+00 0.00000e+00
0.00000e+00 0.00000e+00 0.00000e+00
0.00000e+00 0.00000e+00 0.00000e+00
0.00000e+00 0.00000e+00 0.00000e+00
0.00000e+00 0.00000e+00 0.00000e+00
0.00000e+00 0.00000e+00 0.00000e+00
0.00000e+00 0.00000e+00 0.00000e+00
0.00000e+00 0.00000e+00 0.00000e+00
0.00000e+00 0.00000e+00 0.00000e+00
</DataArray>
<DataArray Name="Disp_error" type="Float32" NumberOfComponents="3" format="ascii">
0.00000e+00 0.00000e+00 0.00000e+00
0.00000e+00 0.00000e+00 0.00000e+00
0.00000e+00 0.00000e+00 0.00000e+00
0.00000e+00 0.00000e+00 0.00000e+00
0.00000e+00 0.00000e+00 0.00000e+00
0.00000e+00 0.00000e+00 0.00000e+00
0.00000e+00 0.00000e+00 0.00000e+00
0.00000e+00 0.00000e+00 0.00000e+00
0.00000e+00 0.00000e+00 0.00000e+00
0.00000e+00 0.00000e+00 0.00000e+00
0.00000e+00 0.00000e+00 0.00000e+00
0.00000e+00 0.00000e+00 0.00000e+00
0.00000e+00 0.00000e+00 0.00000e+00
0.00000e+00 0.00000e+00 0.00000e+00
0.00000e+00 0.00000e+00 0.00000e+00
0.00000e+00 0.00000e+00 0.00000e+00
0.00000e+00 0.00000e+00 0.00000e+00
0.00000e+00 0.00000e+00 0.00000e+00
0.00000e+00 0.00000e+00 0.00000e+00
0.00000e+00 0.00000e+00 0.00000e+00
0.00000e+00 0.00000e+00 0.00000e+00
0.00000e+00 0.00000e+00 0.00000e+00
2.30057e-14 3.60441e-15 1.14989e-07
9.20210e-15 2.37878e-15 1.86934e-07
6.85730e-15 5.12948e-15 1.59605e-07
2.59622e-15 1.27279e-15 1.99885e-07
1.52103e-14 3.21116e-15 3.70550e-07
1.77773e-14 3.77753e-16 4.24101e-07
8.70755e-15 2.23506e-15 5.04428e-07
1.87824e-14 2.78860e-15 5.49946e-07
1.87045e-14 1.48036e-15 5.74160e-07
2.04787e-14 1.00827e-15 5.81844e-07
1.65893e-14 3.08307e-15 5.86733e-07
2.18322e-14 2.07239e-15 5.59492e-07
2.00962e-14 4.34544e-15 5.15953e-07
3.19603e-15 2.28881e-15 4.31202e-07
8.97707e-15 1.48575e-15 3.82192e-07
6.95116e-15 1.49842e-15 2.17580e-07
2.14515e-15 7.76785e-16 1.64961e-07
1.03762e-14 1.22566e-15 1.80997e-07
2.03105e-14 1.61200e-15 1.15899e-07
0.00000e+00 0.00000e+00 0.00000e+00
0.00000e+00 0.00000e+00 0.00000e+00
1.19831e-14 3.37037e-15 1.92202e-07
9.98485e-15 5.66096e-15 2.24216e-07
3.67525e-14 1.24456e-15 3.65311e-07
2.77695e-14 1.06882e-14 8.40751e-07
1.63505e-14 7.31448e-16 1.24332e-06
1.41093e-14 5.86144e-15 1.58371e-06
8.19623e-15 4.24132e-15 1.84635e-06
2.33969e-14 5.80184e-15 1.99955e-06
3.42238e-14 1.64863e-15 2.13645e-06
2.67643e-14 8.05662e-16 2.16905e-06
1.54866e-14 2.68129e-15 2.15229e-06
8.05619e-15 5.14328e-15 2.03494e-06
1.06236e-14 6.16369e-16 1.87289e-06
1.79495e-14 6.17248e-15 1.63587e-06
5.28287e-15 5.18578e-15 1.31223e-06
5.79296e-15 3.10857e-15 9.02917e-07
9.73435e-15 2.12640e-15 4.08152e-07
3.12774e-14 3.58591e-16 2.18628e-07
2.48837e-15 3.62920e-16 1.94355e-07
0.00000e+00 0.00000e+00 0.00000e+00
0.00000e+00 0.00000e+00 0.00000e+00
1.96546e-14 1.12666e-15 1.58034e-07
8.06112e-15 6.48113e-16 3.70666e-07
1.39226e-14 1.18848e-14 8.70321e-07
4.93286e-15 5.28442e-16 1.64658e-06
4.15766e-14 1.01022e-14 2.36090e-06
3.01277e-15 2.30756e-15 2.95043e-06
1.84495e-16 3.04173e-15 3.37418e-06
1.91071e-14 7.36972e-15 3.71411e-06
1.10617e-14 3.07264e-16 3.99724e-06
2.27262e-14 4.67264e-15 4.12203e-06
8.60559e-15 4.13980e-15 4.01121e-06
1.36249e-15 3.53116e-15 3.77186e-06
1.16066e-14 7.25660e-15 3.45241e-06
2.23966e-14 1.34806e-15 3.03425e-06
1.48988e-14 1.09786e-15 2.44752e-06
3.26863e-14 9.97634e-15 1.76160e-06
5.98853e-16 3.32824e-15 9.39704e-07
4.21547e-15 1.92819e-16 4.12576e-07
3.32361e-14 1.90287e-15 1.65601e-07
0.00000e+00 0.00000e+00 0.00000e+00
0.00000e+00 0.00000e+00 0.00000e+00
6.52611e-15 1.31933e-15 1.98139e-07
7.96153e-15 1.47950e-15 8.44942e-07
1.73374e-14 4.03577e-16 1.65682e-06
3.87483e-14 9.63387e-15 2.55741e-06
3.26323e-14 5.25303e-15 3.58466e-06
2.79513e-14 4.23266e-15 4.51691e-06
1.65937e-14 7.92049e-15 5.21168e-06
1.13321e-14 9.30969e-17 5.72763e-06
1.03307e-14 8.28774e-15 6.08154e-06
2.97008e-14 9.17268e-16 6.16908e-06
2.17515e-14 1.21787e-15 6.08340e-06
2.26449e-14 5.93959e-15 5.80586e-06
3.65335e-14 3.74240e-15 5.28246e-06
1.71341e-14 6.66308e-17 4.62309e-06
2.36048e-14 3.54128e-15 3.73553e-06
1.09850e-14 7.83790e-15 2.65986e-06
1.67404e-14 4.81768e-15 1.72760e-06
1.61176e-14 9.20390e-16 8.88947e-07
1.69445e-14 6.75211e-16 2.13040e-07
0.00000e+00 0.00000e+00 0.00000e+00
0.00000e+00 0.00000e+00 0.00000e+00
1.51048e-14 1.42813e-15 3.63681e-07
3.36013e-14 3.44342e-15 1.24285e-06
3.86534e-14 3.46153e-15 2.34321e-06
6.10311e-14 6.08429e-16 3.62284e-06
5.09740e-15 9.13498e-15 4.88386e-06
2.49680e-14 1.79528e-15 5.97350e-06
3.46224e-16 3.43289e-15 6.83963e-06
1.84857e-14 7.92590e-15 7.51391e-06
1.01633e-14 4.29481e-15 7.98702e-06
2.12531e-14 7.32227e-15 8.16956e-06
7.42183e-15 5.76940e-16 7.99075e-06
3.04974e-14 1.68400e-15 7.57538e-06
1.02455e-14 1.42956e-16 6.91973e-06
1.90573e-14 1.02614e-15 6.10948e-06
2.77615e-14 4.52772e-15 4.97513e-06
2.61411e-14 1.59301e-15 3.69921e-06
1.88339e-14 7.15354e-15 2.40840e-06
9.81954e-15 7.10724e-15 1.27917e-06
1.78322e-14 4.20885e-15 3.65777e-07
0.00000e+00 0.00000e+00 0.00000e+00
0.00000e+00 0.00000e+00 0.00000e+00
1.54331e-14 3.36975e-15 4.20958e-07
2.42655e-14 8.71010e-16 1.55997e-06
3.31738e-14 5.34830e-15 2.94391e-06
9.98556e-15 4.27690e-15 4.58211e-06
1.24216e-14 3.31778e-15 6.00144e-06
1.63506e-14 7.00254e-15 7.30716e-06
1.21078e-14 6.39052e-15 8.39680e-06
1.11305e-14 5.51990e-15 9.15676e-06
8.48015e-15 8.91110e-15 9.65223e-06
3.05169e-15 9.31891e-16 9.88320e-06
2.99934e-14 8.02675e-15 9.72673e-06
5.13235e-15 3.42487e-15 9.26480e-06
3.31963e-14 1.75959e-15 8.50111e-06
1.61869e-16 4.15757e-15 7.41333e-06
7.11751e-15 4.28229e-16 6.08712e-06
1.95218e-15 1.52052e-15 4.61563e-06
2.84183e-14 1.11312e-15 2.97744e-06
1.41212e-14 3.82361e-15 1.54786e-06
1.98809e-14 2.31446e-15 4.07570e-07
0.00000e+00 0.00000e+00 0.00000e+00
0.00000e+00 0.00000e+00 0.00000e+00
1.58936e-14 4.12820e-16 4.87547e-07
2.28679e-15 5.58570e-15 1.81282e-06
6.63015e-15 2.58837e-15 3.37977e-06
3.62738e-15 5.87994e-15 5.28060e-06
1.21405e-14 7.73687e-15 6.86757e-06
1.37658e-14 6.90018e-15 8.36700e-06
1.09347e-14 6.58878e-16 9.55164e-06
1.76511e-14 1.00904e-14 1.04830e-05
1.04437e-14 7.28741e-15 1.11125e-05
2.24683e-14 9.75367e-15 1.13249e-05
1.27226e-14 6.00214e-15 1.12243e-05
5.77939e-15 1.09941e-14 1.06394e-05
1.08988e-14 1.41058e-15 9.73046e-06
1.14404e-14 6.26556e-15 8.50484e-06
6.17187e-15 1.91090e-15 6.94394e-06
1.68472e-15 4.71295e-15 5.28060e-06
2.66092e-14 2.31529e-15 3.39746e-06
4.54492e-14 2.38096e-15 1.82819e-06
8.15338e-15 3.58753e-15 4.95347e-07
0.00000e+00 0.00000e+00 0.00000e+00
0.00000e+00 0.00000e+00 0.00000e+00
2.21693e-14 3.96801e-16 5.35976e-07
1.44677e-14 3.76147e-16 1.98744e-06
3.87319e-15 1.74396e-15 3.71505e-06
2.25488e-14 6.48727e-15 5.77047e-06
1.47278e-14 5.88626e-16 7.53812e-06
5.19660e-15 1.16771e-15 9.13069e-06
2.31109e-15 6.83745e-15 1.05090e-05
2.58834e-14 4.71858e-15 1.15708e-05
8.66920e-15 1.30061e-14 1.22152e-05
6.64889e-15 6.83436e-15 1.24834e-05
2.34048e-14 1.42963e-14 1.23568e-05
2.88282e-15 4.07030e-15 1.17309e-05
1.19123e-14 2.34202e-15 1.06879e-05
1.45463e-14 1.24971e-15 9.29460e-06
2.91811e-15 3.41590e-15 7.65361e-06
3.12582e-15 4.41882e-15 5.83939e-06
1.74040e-14 7.30357e-15 3.75323e-06
6.56639e-15 5.73554e-16 2.00886e-06
7.99450e-15 1.96141e-15 5.28526e-07
0.00000e+00 0.00000e+00 0.00000e+00
0.00000e+00 0.00000e+00 0.00000e+00
1.18089e-15 4.20326e-15 5.76489e-07
9.86833e-15 2.07376e-16 2.12155e-06
4.61164e-14 2.23825e-15 3.99631e-06
1.10716e-14 7.98070e-16 6.04987e-06
2.53258e-14 4.76022e-15 7.94232e-06
5.44030e-15 2.95649e-15 9.63733e-06
1.63637e-14 2.59370e-15 1.11572e-05
1.41289e-14 7.53306e-15 1.22413e-05
6.15253e-15 3.87537e-15 1.28336e-05
3.02583e-15 1.29613e-14 1.31242e-05
3.51446e-15 1.35615e-14 1.29715e-05
5.40631e-15 3.71882e-15 1.24611e-05
1.24474e-14 4.51976e-15 1.13845e-05
1.08613e-14 1.55121e-15 9.89437e-06
1.54456e-14 2.65487e-15 8.10251e-06
3.99575e-14 2.07347e-15 6.16349e-06
1.03460e-14 1.68626e-18 4.01214e-06
2.98672e-14 8.11352e-15 2.13925e-06
4.57055e-15 1.53452e-15 5.66011e-07
0.00000e+00 0.00000e+00 0.00000e+00
0.00000e+00 0.00000e+00 0.00000e+00
1.58935e-14 3.57592e-15 5.72065e-07
3.58250e-14 3.86620e-15 2.14577e-06
4.03169e-15 5.32866e-15 4.07360e-06
7.39912e-15 1.59738e-15 6.13742e-06
9.78801e-15 1.04577e-15 8.07643e-06
1.10551e-14 8.56953e-16 9.81614e-06
2.75232e-14 2.21973e-15 1.12914e-05
2.52655e-14 2.30513e-15 1.24834e-05
5.94010e-15 2.65697e-15 1.30981e-05
2.98420e-15 1.42528e-14 1.34185e-05
3.85949e-15 7.83803e-15 1.32322e-05
1.17541e-14 1.32522e-14 1.26995e-05
2.30238e-14 3.94414e-15 1.16117e-05
1.41769e-14 1.07171e-15 1.00918e-05
3.52425e-14 2.94999e-15 8.29995e-06
1.36930e-14 7.34557e-16 6.24731e-06
4.43928e-14 4.45167e-15 4.13693e-06
3.16395e-14 3.50448e-15 2.17464e-06
4.59269e-14 5.30498e-15 5.76256e-07
0.00000e+00 0.00000e+00 0.00000e+00
0.00000e+00 0.00000e+00 0.00000e+00
7.77331e-15 3.72321e-15 5.85336e-07
1.00636e-14 1.09654e-15 2.12248e-06
1.05874e-14 4.39308e-15 3.98234e-06
5.45287e-16 9.53553e-15 6.06664e-06
9.25817e-15 2.17553e-15 7.97212e-06
3.73264e-16 1.83911e-16 9.63733e-06
1.32580e-14 1.21799e-15 1.11461e-05
5.82708e-16 3.26244e-15 1.22637e-05
1.22563e-14 6.67836e-15 1.29230e-05
2.55310e-14 3.17724e-15 1.31987e-05
2.59069e-16 1.25418e-14 1.30273e-05
3.87436e-14 7.11443e-15 1.24797e-05
1.93786e-14 4.08774e-15 1.14031e-05
3.04547e-15 6.10407e-15 9.87202e-06
1.07644e-14 4.88960e-15 8.13976e-06
4.44024e-15 8.60037e-15 6.19702e-06
3.06431e-14 2.02731e-15 4.03915e-06
7.10608e-15 3.72190e-15 2.13459e-06
1.44090e-14 3.02362e-16 5.85103e-07
0.00000e+00 0.00000e+00 0.00000e+00
0.00000e+00 0.00000e+00 0.00000e+00
2.25636e-15 2.62830e-15 5.37606e-07
8.73387e-15 2.45382e-15 2.01073e-06
1.42318e-14 4.54535e-15 3.73833e-06
3.47983e-14 4.64083e-15 5.78351e-06
8.11307e-15 1.06578e-14 7.56606e-06
1.69544e-14 3.40442e-15 9.19774e-06
3.23045e-14 3.67537e-15 1.05649e-05
3.46263e-14 1.18024e-15 1.16341e-05
1.66058e-14 3.07395e-16 1.23568e-05
1.23680e-14 3.77145e-15 1.25691e-05
4.83469e-16 6.19719e-15 1.24127e-05
1.60411e-14 1.99971e-15 1.17458e-05
3.24190e-14 8.02446e-15 1.06804e-05
2.48289e-14 3.14419e-15 9.35793e-06
2.39071e-15 6.29511e-15 7.65920e-06
9.88988e-16 2.68926e-15 5.84126e-06
4.06926e-15 1.48016e-14 3.74764e-06
3.71672e-16 3.26087e-16 2.01911e-06
1.30665e-14 4.49462e-16 5.52740e-07
0.00000e+00 0.00000e+00 0.00000e+00
0.00000e+00 0.00000e+00 0.00000e+00
1.34259e-14 3.82575e-15 5.00702e-07
1.25732e-16 7.09776e-15 1.84122e-06
1.88125e-14 1.69448e-15 3.41143e-06
1.53524e-14 7.75182e-15 5.26756e-06
4.30339e-14 4.70128e-15 6.95512e-06
2.49581e-14 3.69428e-15 8.51974e-06
5.00359e-14 5.38157e-15 9.68948e-06
3.43544e-14 5.65778e-15 1.06096e-05
8.71828e-16 1.93673e-15 1.12616e-05
2.69196e-15 6.33329e-15 1.14143e-05
7.49813e-15 4.44560e-15 1.12280e-05
2.31617e-15 6.41054e-15 1.05649e-05
9.54722e-16 6.18066e-16 9.64850e-06
1.54787e-15 6.43231e-15 8.48621e-06
1.81933e-14 2.66767e-15 6.97374e-06
3.00594e-14 1.09809e-14 5.27501e-06
4.97468e-14 6.69418e-15 3.43565e-06
2.10600e-14 8.80316e-15 1.84542e-06
6.13988e-15 2.77892e-15 4.95696e-07
0.00000e+00 0.00000e+00 0.00000e+00
0.00000e+00 0.00000e+00 0.00000e+00
4.47697e-15 3.00121e-15 4.25614e-07
2.97486e-14 6.16750e-15 1.60048e-06
1.09255e-14 6.66080e-15 2.99700e-06
3.40495e-14 5.60832e-15 4.59142e-06
6.82858e-15 5.00130e-15 6.04428e-06
2.33167e-14 1.32553e-15 7.46362e-06
1.13528e-14 1.25364e-15 8.54582e-06
7.31642e-16 1.00799e-14 9.29832e-06
2.70390e-14 1.01393e-15 9.73791e-06
8.04511e-15 2.96718e-16 9.87947e-06
1.72092e-14 2.16733e-15 9.66713e-06
3.43829e-14 1.52631e-15 9.17912e-06
3.53183e-15 2.22578e-15 8.39308e-06
2.10522e-14 2.05121e-15 7.33696e-06
3.03196e-15 1.01194e-14 6.02938e-06
6.03297e-15 7.93568e-15 4.59142e-06
1.69567e-14 5.90486e-15 2.97744e-06
2.52418e-14 1.34853e-15 1.59023e-06
2.23558e-14 5.11110e-15 4.11645e-07
0.00000e+00 0.00000e+00 0.00000e+00
0.00000e+00 0.00000e+00 0.00000e+00
5.84474e-15 3.12099e-15 3.96161e-07
6.97535e-15 2.02884e-15 1.27265e-06
8.81822e-15 9.17130e-15 2.37208e-06
3.19976e-15 7.95137e-15 3.65451e-06
1.85137e-14 8.24135e-15 4.95836e-06
1.65099e-14 8.29994e-16 6.13183e-06
1.18223e-14 1.16870e-15 7.02590e-06
2.30451e-14 1.34972e-15 7.66665e-06
1.03226e-14 8.75058e-15 8.04290e-06
2.56983e-14 1.72978e-15 8.10996e-06
1.13158e-14 3.07056e-15 7.93114e-06
4.95399e-14 1.75212e-15 7.46734e-06
4.61369e-15 3.23289e-15 6.86198e-06
2.42443e-14 2.95713e-15 5.99213e-06
4.26470e-16 5.45795e-15 4.91366e-06
1.82221e-14 5.88574e-15 3.63681e-06
8.95973e-15 5.75035e-15 2.39443e-06
6.42697e-15 4.97058e-15 1.25775e-06
1.00296e-14 6.74794e-16 3.65311e-07
0.00000e+00 0.00000e+00 0.00000e+00
0.00000e+00 0.00000e+00 0.00000e+00
2.31301e-14 2.27406e-15 2.07569e-07
4.15323e-15 4.93172e-15 8.45641e-07
4.84954e-14 4.13603e-15 1.67033e-06
2.16169e-14 1.28685e-14 2.62354e-06
1.04729e-14 6.84553e-15 3.68245e-06
2.10129e-14 7.55741e-15 4.66779e-06
1.41906e-14 4.36419e-16 5.33648e-06
1.94392e-14 7.34145e-15 5.85057e-06
4.61611e-14 8.06362e-15 6.06291e-06
8.75079e-15 1.95460e-15 6.11134e-06
2.89741e-14 9.72585e-16 5.97723e-06
8.51006e-16 9.57576e-15 5.72205e-06
1.28601e-14 3.90339e-15 5.18374e-06
3.30986e-14 3.61864e-15 4.57838e-06
1.49105e-14 3.10267e-16 3.65265e-06
4.88623e-15 1.63449e-15 2.62260e-06
1.71692e-15 7.09780e-15 1.67498e-06
8.36172e-15 2.20151e-15 8.47038e-07
6.30306e-15 9.69487e-16 1.87778e-07
0.00000e+00 0.00000e+00 0.00000e+00
0.00000e+00 0.00000e+00 0.00000e+00
8.24618e-15 4.15847e-15 1.72644e-07
8.00810e-15 1.64942e-15 3.75323e-07
2.87101e-15 9.09057e-15 8.84291e-07
2.74521e-14 2.39109e-15 1.69408e-06
2.00828e-14 9.64701e-15 2.41958e-06
2.92983e-14 4.29975e-15 3.03611e-06
2.34381e-14 2.00952e-15 3.48408e-06
7.13384e-15 5.53683e-15 3.78862e-06
2.46238e-14 5.65125e-15 3.99724e-06
1.55537e-14 1.28883e-15 4.04008e-06
4.29982e-14 5.60473e-15 3.92366e-06
4.87052e-14 6.87866e-15 3.68152e-06
1.97462e-14 3.26457e-15 3.40585e-06
1.92199e-14 1.67946e-15 2.98116e-06
3.35238e-15 2.79469e-15 2.40561e-06
4.24834e-15 4.13183e-15 1.69408e-06
1.24479e-14 3.16048e-15 8.87550e-07
1.57927e-15 3.46406e-15 3.72529e-07
1.93747e-14 1.81133e-15 1.68337e-07
0.00000e+00 0.00000e+00 0.00000e+00
0.00000e+00 0.00000e+00 0.00000e+00
2.97973e-14 2.01459e-15 1.95141e-07
2.19734e-14 4.15556e-15 2.39350e-07
5.56099e-15 3.25218e-16 3.83938e-07
7.99073e-15 9.54349e-15 8.67993e-07
2.70400e-15 1.28234e-15 1.27172e-06
1.72942e-14 2.26025e-15 1.62004e-06
2.49683e-14 5.74324e-15 1.85613e-06
2.34486e-14 3.29018e-15 2.03680e-06
5.65179e-15 8.14035e-15 2.11596e-06
6.93159e-15 1.45695e-15 2.12621e-06
2.30631e-14 6.78560e-15 2.09082e-06
2.47120e-15 5.92498e-15 1.97627e-06
1.19224e-14 6.37971e-15 1.84402e-06
5.39770e-15 1.10696e-15 1.62236e-06
1.55152e-14 1.92794e-15 1.28848e-06
3.10012e-15 1.36536e-15 8.71019e-07
2.18940e-15 6.27215e-15 3.71598e-07
1.34415e-14 3.83950e-15 2.35043e-07
3.99191e-15 5.22434e-16 1.93337e-07
0.00000e+00 0.00000e+00 0.00000e+00
0.00000e+00 0.00000e+00 0.00000e+00
3.88774e-16 2.33493e-15 1.29781e-07
2.86103e-14 1.91431e-15 1.90892e-07
6.51531e-15 5.76456e-15 1.69443e-07
3.20475e-14 1.89017e-15 2.04658e-07
2.06441e-14 6.95332e-15 3.74275e-07
2.75534e-14 4.28506e-15 4.18629e-07
1.92977e-15 2.95065e-15 5.10248e-07
1.02903e-14 1.42226e-15 5.44591e-07
8.08574e-15 9.40740e-16 5.70901e-07
9.77547e-15 4.83257e-15 5.85103e-07
3.37377e-14 4.61624e-17 5.74160e-07
1.17185e-14 1.82421e-15 5.43194e-07
1.72177e-14 3.13475e-15 5.08269e-07
3.40147e-15 2.76334e-15 4.24683e-07
5.06777e-15 1.34024e-15 3.66243e-07
1.20526e-14 1.31012e-15 1.93133e-07
9.10988e-15 9.80933e-16 1.60653e-07
1.17781e-14 1.48450e-15 1.86294e-07
1.54947e-14 1.82993e-15 1.23422e-07
0.00000e+00 0.00000e+00 0.00000e+00
0.00000e+00 0.00000e+00 0.00000e+00
0.00000e+00 0.00000e+00 0.00000e+00
0.00000e+00 0.00000e+00 0.00000e+00
0.00000e+00 0.00000e+00 0.00000e+00
0.00000e+00 0.00000e+00 0.00000e+00
0.00000e+00 0.00000e+00 0.00000e+00
0.00000e+00 0.00000e+00 0.00000e+00
0.00000e+00 0.00000e+00 0.00000e+00
0.00000e+00 0.00000e+00 0.00000e+00
0.00000e+00 0.00000e+00 0.00000e+00
0.00000e+00 0.00000e+00 0.00000e+00
0.00000e+00 0.00000e+00 0.00000e+00
0.00000e+00 0.00000e+00 0.00000e+00
0.00000e+00 0.00000e+00 0.00000e+00
0.00000e+00 0.00000e+00 0.00000e+00
0.00000e+00 0.00000e+00 0.00000e+00
0.00000e+00 0.00000e+00 0.00000e+00
0.00000e+00 0.00000e+00 0.00000e+00
0.00000e+00 0.00000e+00 0.00000e+00
0.00000e+00 0.00000e+00 0.00000e+00
0.00000e+00 0.00000e+00 0.00000e+00
</DataArray>
<DataArray Name="angDisp_error" type="Float32" NumberOfComponents="3" format="ascii">
0.00000e+00 0.00000e+00 0.00000e+00
0.00000e+00 0.00000e+00 0.00000e+00
0.00000e+00 0.00000e+00 0.00000e+00
0.00000e+00 0.00000e+00 0.00000e+00
0.00000e+00 0.00000e+00 0.00000e+00
0.00000e+00 0.00000e+00 0.00000e+00
0.00000e+00 0.00000e+00 0.00000e+00
0.00000e+00 0.00000e+00 0.00000e+00
0.00000e+00 0.00000e+00 0.00000e+00
0.00000e+00 0.00000e+00 0.00000e+00
0.00000e+00 0.00000e+00 0.00000e+00
0.00000e+00 0.00000e+00 0.00000e+00
0.00000e+00 0.00000e+00 0.00000e+00
0.00000e+00 0.00000e+00 0.00000e+00
0.00000e+00 0.00000e+00 0.00000e+00
0.00000e+00 0.00000e+00 0.00000e+00
0.00000e+00 0.00000e+00 0.00000e+00
0.00000e+00 0.00000e+00 0.00000e+00
0.00000e+00 0.00000e+00 0.00000e+00
0.00000e+00 0.00000e+00 0.00000e+00
0.00000e+00 0.00000e+00 0.00000e+00
0.00000e+00 0.00000e+00 0.00000e+00
1.97890e-05 1.96551e-05 1.67537e-14
4.00171e-05 5.41029e-05 3.33916e-14
3.33376e-05 5.59478e-05 5.90218e-15
1.71736e-05 5.34658e-05 9.38040e-14
3.67276e-05 4.91533e-05 6.67295e-14
2.23517e-08 3.89582e-05 5.89791e-14
3.76925e-05 3.11793e-05 1.58763e-13
9.62615e-06 1.99685e-05 4.16203e-14
3.73498e-05 1.00087e-05 9.61690e-14
1.34110e-05 1.03185e-06 8.17092e-14
3.78117e-05 1.11882e-05 6.00820e-14
1.03712e-05 1.90628e-05 1.39782e-14
3.79533e-05 3.23015e-05 8.90106e-15
4.09782e-07 3.78015e-05 5.21267e-14
3.77558e-05 4.99561e-05 5.33836e-14
1.64583e-05 5.29503e-05 1.69495e-14
3.38629e-05 5.67520e-05 2.69648e-14
3.99882e-05 5.39199e-05 6.59567e-15
1.98605e-05 1.98602e-05 7.30340e-14
0.00000e+00 0.00000e+00 0.00000e+00
0.00000e+00 0.00000e+00 0.00000e+00
5.39524e-05 3.99938e-05 2.06186e-15
5.34225e-05 5.36870e-05 4.07935e-16
6.97747e-05 6.09141e-05 3.54268e-14
4.57838e-05 6.15027e-05 8.01494e-14
7.27177e-05 5.25191e-05 1.29919e-13
2.07499e-05 4.61340e-05 8.32118e-14
6.96257e-05 3.34708e-05 6.52958e-14
2.84612e-06 2.46586e-05 5.15773e-14
6.83516e-05 9.93209e-06 6.19852e-14
3.20375e-06 1.08157e-06 7.55556e-15
6.83516e-05 1.30455e-05 9.88653e-15
2.20537e-06 2.21729e-05 5.72978e-14
6.99013e-05 3.57535e-05 3.19960e-14
1.92970e-05 4.45936e-05 1.70960e-14
7.30902e-05 5.44563e-05 8.57394e-16
4.41223e-05 6.00815e-05 2.20753e-14
7.06948e-05 6.12829e-05 6.13601e-14
5.31618e-05 5.25340e-05 3.13629e-14
5.40693e-05 4.01186e-05 9.23322e-14
0.00000e+00 0.00000e+00 0.00000e+00
0.00000e+00 0.00000e+00 0.00000e+00
5.58016e-05 3.32110e-05 2.23286e-14
6.08936e-05 7.05086e-05 5.80923e-15
8.71569e-05 8.64528e-05 6.63627e-14
4.71920e-05 8.32453e-05 1.16850e-13
7.83503e-05 7.25091e-05 5.75835e-14
1.70693e-05 6.22123e-05 6.59937e-14
7.31945e-05 4.51151e-05 1.12008e-14
3.51667e-06 3.27807e-05 3.99451e-14
7.11977e-05 1.47335e-05 1.00873e-14
9.79006e-06 1.96634e-06 6.33192e-15
7.14362e-05 1.73654e-05 3.58243e-14
3.79980e-06 2.90107e-05 1.66731e-14
7.48783e-05 4.78905e-05 2.40250e-14
1.66520e-05 5.85876e-05 7.74500e-14
7.98926e-05 7.49975e-05 1.03943e-14
4.68716e-05 8.19676e-05 1.81474e-14
8.74773e-05 8.89823e-05 1.88745e-14
6.05993e-05 7.00355e-05 6.56439e-14
5.63525e-05 3.39989e-05 2.41171e-14
0.00000e+00 0.00000e+00 0.00000e+00
0.00000e+00 0.00000e+00 0.00000e+00
5.38989e-05 1.70358e-05 6.89412e-14
6.17467e-05 4.53070e-05 3.69348e-15
8.33832e-05 4.72665e-05 1.29891e-13
4.14625e-05 4.16934e-05 1.91391e-14
8.04961e-05 3.51593e-05 1.03287e-14
1.58697e-05 3.10503e-05 6.46713e-15
7.65175e-05 2.14279e-05 5.99058e-14
1.25170e-06 1.61901e-05 8.16026e-14
7.53850e-05 5.12786e-06 1.13850e-14
8.29995e-06 1.93231e-06 2.12283e-14
7.52360e-05 1.02054e-05 7.20833e-14
1.89245e-06 1.28448e-05 3.77575e-14
7.60853e-05 2.53655e-05 3.50877e-14
1.54078e-05 2.80142e-05 2.52802e-14
7.98032e-05 3.84971e-05 2.29912e-14
4.13358e-05 3.83183e-05 9.35662e-16
8.30479e-05 4.83841e-05 1.74887e-14
6.18156e-05 4.33698e-05 1.21377e-13
5.33802e-05 1.71550e-05 1.10876e-13
0.00000e+00 0.00000e+00 0.00000e+00
0.00000e+00 0.00000e+00 0.00000e+00
4.88809e-05 3.67276e-05 3.73591e-14
5.27073e-05 7.25836e-05 2.54134e-14
7.24681e-05 7.88867e-05 7.61779e-14
3.45185e-05 7.99373e-05 6.96772e-14
7.08550e-05 6.99237e-05 2.63441e-14
9.90927e-06 6.11544e-05 2.26030e-14
6.54608e-05 4.28259e-05 7.77641e-15
6.76513e-06 3.43919e-05 1.99560e-14
6.26594e-05 1.35191e-05 2.17959e-14
1.18166e-05 2.84490e-06 1.18644e-13
6.25402e-05 1.83117e-05 6.52515e-14
6.22869e-06 2.74703e-05 6.93644e-14
6.60717e-05 4.79594e-05 1.06081e-13
1.11088e-05 5.64530e-05 1.62458e-14
6.95884e-05 7.40960e-05 6.32631e-14
3.59118e-05 7.72700e-05 2.83319e-15
7.24643e-05 8.20309e-05 2.90343e-14
5.34132e-05 7.17044e-05 4.32871e-14
4.89922e-05 3.75621e-05 7.23771e-14
0.00000e+00 0.00000e+00 0.00000e+00
0.00000e+00 0.00000e+00 0.00000e+00
3.85735e-05 4.17233e-07 2.56054e-14
4.60856e-05 2.06381e-05 2.58866e-14
6.21937e-05 1.61231e-05 5.68829e-14
3.02121e-05 1.55643e-05 8.79354e-14
6.10948e-05 1.06394e-05 8.34423e-14
1.11014e-05 1.21891e-05 3.77057e-14
5.91800e-05 4.88758e-06 1.12981e-14
2.66731e-06 6.75395e-06 2.18747e-14
5.76675e-05 1.49012e-06 1.07467e-15
6.97374e-06 2.68099e-06 8.16859e-14
5.89490e-05 6.07409e-06 1.19809e-13
3.35276e-06 1.03191e-06 1.88634e-14
5.93141e-05 1.08778e-05 2.98873e-14
1.09076e-05 5.62519e-06 9.55155e-14
6.08265e-05 1.49310e-05 5.17072e-14
3.11323e-05 1.14366e-05 6.15560e-14
6.11059e-05 1.86116e-05 8.51707e-14
4.63184e-05 1.82167e-05 8.64436e-14
3.85153e-05 9.83477e-07 4.81411e-14
0.00000e+00 0.00000e+00 0.00000e+00
0.00000e+00 0.00000e+00 0.00000e+00
3.12240e-05 3.70815e-05 2.37978e-14
3.37949e-05 6.95512e-05 3.67159e-14
4.47445e-05 7.49081e-05 1.81107e-13
2.13385e-05 7.68751e-05 1.03902e-13
4.34965e-05 6.46561e-05 1.09109e-13
4.90993e-06 5.86957e-05 9.00239e-14
4.12315e-05 4.08664e-05 1.36406e-14
6.68317e-06 3.28496e-05 9.50614e-15
4.05684e-05 1.24983e-05 7.49721e-14
1.10865e-05 4.89324e-06 4.33323e-15
4.11570e-05 1.81124e-05 1.23887e-13
7.34627e-06 2.53767e-05 3.09219e-14
4.23044e-05 4.72739e-05 2.41850e-14
4.17978e-06 5.37261e-05 1.15087e-14
4.42043e-05 7.12425e-05 2.68354e-14
2.12193e-05 7.31647e-05 6.75860e-14
4.49847e-05 7.77692e-05 7.20977e-14
3.35481e-05 6.74650e-05 1.04404e-13
3.11220e-05 3.80576e-05 5.59173e-15
0.00000e+00 0.00000e+00 0.00000e+00
0.00000e+00 0.00000e+00 0.00000e+00
2.00861e-05 9.30578e-06 2.45766e-14
2.40449e-05 2.72691e-06 3.99598e-14
3.23448e-05 3.94881e-06 1.35082e-13
1.73710e-05 1.99676e-06 1.27743e-13
3.23504e-05 6.15418e-06 4.73101e-14
6.47083e-06 1.96695e-06 3.85644e-14
3.30731e-05 7.21216e-06 2.00074e-14
1.39326e-06 5.21541e-08 4.00031e-15
3.34233e-05 5.87851e-06 1.58189e-14
4.06057e-06 2.27890e-06 7.20926e-14
3.34755e-05 3.75509e-06 9.32743e-14
2.30223e-06 7.10040e-06 1.34570e-15
3.39597e-05 4.02331e-07 4.04425e-14
5.04032e-06 9.64105e-06 1.89992e-15
3.37325e-05 2.57790e-06 7.02179e-15
1.60784e-05 6.97374e-06 4.64129e-14
3.28571e-05 8.19564e-07 7.79121e-14
2.39033e-05 5.96046e-08 6.01451e-14
1.98942e-05 8.49366e-06 5.68324e-14
0.00000e+00 0.00000e+00 0.00000e+00
0.00000e+00 0.00000e+00 0.00000e+00
1.05260e-05 3.72678e-05 1.14831e-14
1.02092e-05 6.80834e-05 9.74310e-14
1.43843e-05 7.16001e-05 1.20466e-13
6.10016e-06 7.46548e-05 1.05889e-13
1.24704e-05 6.24955e-05 1.05657e-13
4.39584e-07 5.93960e-05 6.55233e-14
1.20997e-05 4.07472e-05 3.84489e-14
4.83915e-06 3.28049e-05 1.71495e-14
1.21705e-05 1.18464e-05 3.92161e-14
6.78003e-06 5.56991e-06 9.91074e-14
1.31987e-05 1.73897e-05 2.05969e-14
5.60284e-06 2.44752e-05 3.10264e-14
1.37165e-05 4.68567e-05 5.54018e-14
1.14180e-06 5.38677e-05 4.02914e-14
1.35452e-05 6.96033e-05 7.72952e-14
5.28991e-06 7.19577e-05 1.70141e-13
1.47102e-05 7.57575e-05 1.23971e-13
1.05724e-05 6.63996e-05 3.13938e-14
1.04561e-05 3.84822e-05 7.84710e-14
0.00000e+00 0.00000e+00 0.00000e+00
0.00000e+00 0.00000e+00 0.00000e+00
4.94547e-07 1.29268e-05 4.24455e-14
7.06734e-07 2.96533e-06 1.04104e-13
1.17666e-06 9.35793e-06 2.55367e-14
1.42294e-06 7.76350e-06 1.18568e-13
2.08109e-06 1.09822e-05 4.52160e-14
2.27933e-06 7.28667e-06 1.06989e-13
2.28076e-06 1.21221e-05 1.64638e-15
2.60519e-06 3.21120e-06 1.78411e-14
4.00074e-06 8.00937e-06 1.24898e-13
2.50729e-06 2.47007e-06 1.15925e-13
3.30911e-06 2.66358e-06 1.40673e-14
2.22148e-06 9.46969e-06 4.15954e-14
2.33653e-06 4.08292e-06 6.19179e-14
2.68339e-06 1.52588e-05 6.35081e-14
2.24372e-06 7.21216e-06 6.31361e-15
2.03311e-06 1.35750e-05 1.80952e-14
1.64561e-06 7.03335e-06 7.18532e-14
1.07079e-06 6.09457e-06 6.43262e-14
6.85916e-07 1.19731e-05 2.96147e-14
0.00000e+00 0.00000e+00 0.00000e+00
0.00000e+00 0.00000e+00 0.00000e+00
1.11458e-05 3.77670e-05 2.31135e-14
1.23922e-05 6.78748e-05 3.80960e-14
1.66725e-05 7.16895e-05 5.05771e-14
9.85153e-06 7.45356e-05 7.11300e-14
1.68122e-05 6.29872e-05 1.28669e-13
5.54137e-06 5.85020e-05 6.11904e-14
1.64323e-05 4.10900e-05 2.51036e-14
1.84774e-06 3.41460e-05 1.89988e-14
1.72853e-05 1.24127e-05 1.72103e-14
6.33299e-08 4.98928e-06 4.93610e-14
1.78814e-05 1.78851e-05 4.91200e-14
2.83122e-07 2.46689e-05 1.18347e-14
1.86898e-05 4.76167e-05 3.59874e-14
4.05870e-06 5.36889e-05 9.09873e-14
1.77249e-05 6.95437e-05 1.01642e-13
9.61311e-06 7.17491e-05 3.30959e-14
1.73766e-05 7.59661e-05 3.32722e-14
1.27801e-05 6.56247e-05 7.47719e-14
1.10230e-05 3.91006e-05 9.87163e-14
0.00000e+00 0.00000e+00 0.00000e+00
0.00000e+00 0.00000e+00 0.00000e+00
1.92730e-05 9.44734e-06 6.40724e-14
2.23592e-05 2.54810e-06 1.77464e-14
2.98414e-05 3.44217e-06 4.76942e-14
1.44020e-05 2.14577e-06 1.56553e-14
2.78391e-05 5.87106e-06 3.21705e-14
3.50550e-06 2.60770e-06 6.78236e-14
2.64645e-05 6.98864e-06 2.50716e-14
5.20051e-06 9.38773e-07 3.70286e-15
2.72468e-05 5.98654e-06 8.99591e-14
9.17912e-06 3.13733e-06 8.46460e-14
2.84687e-05 2.23890e-06 1.26871e-14
8.17329e-06 7.54744e-06 2.07548e-14
2.99588e-05 1.78814e-07 3.49659e-15
4.80562e-07 8.24034e-06 1.08786e-14
2.94670e-05 2.39909e-06 8.23286e-15
1.28299e-05 7.24196e-06 2.09998e-14
2.98861e-05 5.96046e-07 5.96742e-14
2.22297e-05 1.19209e-07 7.56998e-14
1.94276e-05 8.97050e-06 1.20401e-13
0.00000e+00 0.00000e+00 0.00000e+00
0.00000e+00 0.00000e+00 0.00000e+00
3.17278e-05 3.78340e-05 3.99932e-14
3.52589e-05 6.92010e-05 1.16175e-13
4.71119e-05 7.51764e-05 9.63029e-14
2.45012e-05 7.67857e-05 1.73080e-13
4.64395e-05 6.63400e-05 7.07414e-14
1.00881e-05 5.95823e-05 8.93401e-14
4.49121e-05 4.08590e-05 8.91916e-14
1.01328e-06 3.27528e-05 7.95492e-14
4.61489e-05 1.17011e-05 7.72562e-14
7.80821e-06 3.57591e-06 6.66882e-14
4.77582e-05 1.87159e-05 1.30675e-14
3.91901e-06 2.65315e-05 3.33726e-14
4.78476e-05 4.68045e-05 5.32144e-14
7.35372e-06 5.29513e-05 2.05306e-14
4.84362e-05 7.09593e-05 9.24807e-15
2.36444e-05 7.29561e-05 1.68386e-14
4.80451e-05 7.80821e-05 2.86151e-15
3.48631e-05 6.74203e-05 1.02854e-13
3.23439e-05 3.85046e-05 9.79745e-14
0.00000e+00 0.00000e+00 0.00000e+00
0.00000e+00 0.00000e+00 0.00000e+00
3.78895e-05 2.23517e-08 9.40829e-14
4.49736e-05 2.03624e-05 1.22620e-13
5.97835e-05 1.69352e-05 9.30799e-14
2.82973e-05 1.50129e-05 1.00189e-15
5.82486e-05 9.81987e-06 3.58903e-14
7.71135e-06 1.01775e-05 1.10191e-13
5.44935e-05 5.26756e-06 6.20660e-14
7.04825e-06 7.78586e-06 1.28089e-14
5.45681e-05 5.32717e-07 5.81550e-15
1.25915e-05 3.89293e-06 5.34413e-14
5.50449e-05 4.87827e-06 5.83411e-15
8.22544e-06 5.28991e-07 2.10539e-14
5.55292e-05 1.11982e-05 7.45266e-15
5.54323e-06 6.36280e-06 5.89852e-15
5.86286e-05 1.57952e-05 5.16902e-14
2.75150e-05 1.14813e-05 2.97774e-16
5.94668e-05 1.96919e-05 3.26336e-14
4.44576e-05 1.82837e-05 8.01452e-14
3.76692e-05 9.90927e-07 7.29006e-14
0.00000e+00 0.00000e+00 0.00000e+00
0.00000e+00 0.00000e+00 0.00000e+00
4.97866e-05 3.73870e-05 3.04122e-14
5.35268e-05 7.24196e-05 3.10664e-14
7.45356e-05 7.92965e-05 6.76389e-14
3.76105e-05 8.01831e-05 5.78228e-14
7.28071e-05 7.15703e-05 6.17899e-14
1.35601e-05 6.23465e-05 2.39501e-14
6.92159e-05 4.31538e-05 1.34623e-14
2.84612e-06 3.19332e-05 3.58311e-14
6.64145e-05 1.14758e-05 8.18065e-14
7.82311e-06 1.94774e-06 6.95566e-15
6.65337e-05 1.87270e-05 6.15461e-15
2.62260e-06 2.72915e-05 9.19592e-16
6.90520e-05 4.84139e-05 1.39806e-13
1.45882e-05 5.59166e-05 1.40042e-14
7.30231e-05 7.37384e-05 1.73246e-14
3.84077e-05 7.64057e-05 2.76822e-14
7.44611e-05 8.18893e-05 8.33112e-15
5.44582e-05 7.16746e-05 4.49301e-14
5.01596e-05 3.73274e-05 7.53140e-14
0.00000e+00 0.00000e+00 0.00000e+00
0.00000e+00 0.00000e+00 0.00000e+00
5.31017e-05 1.71959e-05 5.64303e-14
6.04354e-05 4.50686e-05 2.67269e-14
8.23662e-05 4.70653e-05 3.73373e-14
3.95626e-05 4.06355e-05 4.77164e-14
7.77319e-05 3.51891e-05 4.58910e-15
1.24276e-05 2.98023e-05 4.30143e-16
7.43568e-05 2.17631e-05 4.53718e-14
5.69224e-06 1.81273e-05 8.57750e-15
7.25836e-05 6.48573e-06 2.98449e-14
1.15782e-05 3.46563e-06 2.95447e-14
7.24047e-05 9.85898e-06 4.45436e-14
4.78327e-06 1.29864e-05 4.10623e-14
7.26581e-05 2.59951e-05 3.10712e-14
1.35750e-05 2.76677e-05 7.08677e-15
7.64802e-05 3.89665e-05 4.67319e-14
3.89069e-05 3.84375e-05 2.83864e-14
8.20309e-05 4.94421e-05 7.83744e-14
6.01206e-05 4.30420e-05 3.42765e-14
5.26994e-05 1.77324e-05 1.40863e-15
0.00000e+00 0.00000e+00 0.00000e+00
0.00000e+00 0.00000e+00 0.00000e+00
5.62812e-05 3.34289e-05 4.53861e-14
6.13034e-05 6.96629e-05 5.47486e-14
8.81851e-05 8.75778e-05 2.28334e-14
4.79668e-05 8.39010e-05 4.14544e-14
8.11815e-05 7.31871e-05 3.22141e-14
1.76355e-05 6.19106e-05 4.22803e-14
7.73668e-05 4.50574e-05 4.33126e-14
1.69873e-06 3.19537e-05 1.18668e-14
7.37756e-05 1.33989e-05 5.49555e-14
7.97212e-06 6.35220e-07 9.44415e-14
7.38353e-05 1.73291e-05 9.36906e-15
7.00355e-07 2.84240e-05 5.70769e-14
7.67261e-05 4.76353e-05 2.61931e-14
1.86488e-05 5.81071e-05 8.06054e-15
8.13007e-05 7.52844e-05 4.19501e-14
4.86448e-05 8.17627e-05 2.81802e-14
8.88817e-05 8.90046e-05 4.47306e-14
6.15027e-05 6.90334e-05 3.81581e-14
5.65434e-05 3.37139e-05 4.69729e-14
0.00000e+00 0.00000e+00 0.00000e+00
0.00000e+00 0.00000e+00 0.00000e+00
5.40907e-05 4.01391e-05 5.71745e-14
5.31394e-05 5.32977e-05 3.02409e-14
6.92196e-05 6.07315e-05 4.42643e-15
4.39510e-05 6.12736e-05 3.15299e-14
7.23600e-05 5.28656e-05 9.17880e-15
1.88053e-05 4.58695e-05 5.52838e-15
6.86049e-05 3.35956e-05 1.49618e-13
6.70552e-07 2.45608e-05 5.11194e-14
6.65337e-05 1.14609e-05 1.07579e-14
3.94881e-06 1.36604e-06 2.72527e-14
6.54310e-05 1.27908e-05 2.19474e-14
1.11759e-06 2.24160e-05 1.89525e-14
6.78524e-05 3.58922e-05 4.64828e-16
1.83731e-05 4.45619e-05 1.11356e-14
7.18385e-05 5.45923e-05 2.17987e-14
4.31910e-05 5.98002e-05 9.81930e-15
6.90445e-05 6.19609e-05 2.00627e-14
5.26402e-05 5.28991e-05 1.75727e-14
5.36880e-05 4.02592e-05 1.76193e-14
0.00000e+00 0.00000e+00 0.00000e+00
0.00000e+00 0.00000e+00 0.00000e+00
1.96751e-05 1.97103e-05 3.04602e-14
4.01940e-05 5.39930e-05 1.72998e-14
3.38815e-05 5.64721e-05 4.28902e-14
1.73077e-05 5.31580e-05 2.28170e-14
3.74876e-05 4.96032e-05 5.65830e-16
3.50177e-07 3.86429e-05 3.45202e-14
3.84077e-05 3.13963e-05 3.85896e-14
9.37283e-06 1.99114e-05 3.00170e-14
3.83332e-05 1.01032e-05 2.66269e-14
1.23009e-05 5.27959e-07 4.44310e-14
3.83183e-05 1.10252e-05 8.25910e-14
8.77678e-06 1.89217e-05 3.49547e-14
3.86462e-05 3.19602e-05 8.40239e-15
6.48201e-07 3.74271e-05 6.17627e-14
3.80985e-05 5.03366e-05 6.13973e-15
1.77510e-05 5.25941e-05 1.26767e-13
3.37288e-05 5.65136e-05 4.75673e-14
4.05414e-05 5.36907e-05 5.29618e-14
1.98861e-05 1.97443e-05 2.45325e-14
0.00000e+00 0.00000e+00 0.00000e+00
0.00000e+00 0.00000e+00 0.00000e+00
0.00000e+00 0.00000e+00 0.00000e+00
0.00000e+00 0.00000e+00 0.00000e+00
0.00000e+00 0.00000e+00 0.00000e+00
0.00000e+00 0.00000e+00 0.00000e+00
0.00000e+00 0.00000e+00 0.00000e+00
0.00000e+00 0.00000e+00 0.00000e+00
0.00000e+00 0.00000e+00 0.00000e+00
0.00000e+00 0.00000e+00 0.00000e+00
0.00000e+00 0.00000e+00 0.00000e+00
0.00000e+00 0.00000e+00 0.00000e+00
0.00000e+00 0.00000e+00 0.00000e+00
0.00000e+00 0.00000e+00 0.00000e+00
0.00000e+00 0.00000e+00 0.00000e+00
0.00000e+00 0.00000e+00 0.00000e+00
0.00000e+00 0.00000e+00 0.00000e+00
0.00000e+00 0.00000e+00 0.00000e+00
0.00000e+00 0.00000e+00 0.00000e+00
0.00000e+00 0.00000e+00 0.00000e+00
0.00000e+00 0.00000e+00 0.00000e+00
0.00000e+00 0.00000e+00 0.00000e+00
</DataArray>
</PointData>
</Piece>
</UnstructuredGrid>
</VTKFile>